c Phi(K_10, 2K_4), reduction=gauge
c copies: 1575
c UNSAT is equivalent to R(2K_4, Z_3) <= 10
p cnf 3285 15414
1 2 3 0
-1 -2 0
-1 -3 0
-2 -3 0
4 5 6 0
-4 -5 0
-4 -6 0
-5 -6 0
7 8 9 0
-7 -8 0
-7 -9 0
-8 -9 0
10 11 12 0
-10 -11 0
-10 -12 0
-11 -12 0
13 14 15 0
-13 -14 0
-13 -15 0
-14 -15 0
16 17 18 0
-16 -17 0
-16 -18 0
-17 -18 0
19 20 21 0
-19 -20 0
-19 -21 0
-20 -21 0
22 23 24 0
-22 -23 0
-22 -24 0
-23 -24 0
25 26 27 0
-25 -26 0
-25 -27 0
-26 -27 0
28 29 30 0
-28 -29 0
-28 -30 0
-29 -30 0
31 32 33 0
-31 -32 0
-31 -33 0
-32 -33 0
34 35 36 0
-34 -35 0
-34 -36 0
-35 -36 0
37 38 39 0
-37 -38 0
-37 -39 0
-38 -39 0
40 41 42 0
-40 -41 0
-40 -42 0
-41 -42 0
43 44 45 0
-43 -44 0
-43 -45 0
-44 -45 0
46 47 48 0
-46 -47 0
-46 -48 0
-47 -48 0
49 50 51 0
-49 -50 0
-49 -51 0
-50 -51 0
52 53 54 0
-52 -53 0
-52 -54 0
-53 -54 0
55 56 57 0
-55 -56 0
-55 -57 0
-56 -57 0
58 59 60 0
-58 -59 0
-58 -60 0
-59 -60 0
61 62 63 0
-61 -62 0
-61 -63 0
-62 -63 0
64 65 66 0
-64 -65 0
-64 -66 0
-65 -66 0
67 68 69 0
-67 -68 0
-67 -69 0
-68 -69 0
70 71 72 0
-70 -71 0
-70 -72 0
-71 -72 0
73 74 75 0
-73 -74 0
-73 -75 0
-74 -75 0
76 77 78 0
-76 -77 0
-76 -78 0
-77 -78 0
79 80 81 0
-79 -80 0
-79 -81 0
-80 -81 0
82 83 84 0
-82 -83 0
-82 -84 0
-83 -84 0
85 86 87 0
-85 -86 0
-85 -87 0
-86 -87 0
88 89 90 0
-88 -89 0
-88 -90 0
-89 -90 0
91 92 93 0
-91 -92 0
-91 -93 0
-92 -93 0
94 95 96 0
-94 -95 0
-94 -96 0
-95 -96 0
97 98 99 0
-97 -98 0
-97 -99 0
-98 -99 0
100 101 102 0
-100 -101 0
-100 -102 0
-101 -102 0
103 104 105 0
-103 -104 0
-103 -105 0
-104 -105 0
106 107 108 0
-106 -107 0
-106 -108 0
-107 -108 0
109 110 111 0
-109 -110 0
-109 -111 0
-110 -111 0
112 113 114 0
-112 -113 0
-112 -114 0
-113 -114 0
115 116 117 0
-115 -116 0
-115 -117 0
-116 -117 0
118 119 120 0
-118 -119 0
-118 -120 0
-119 -120 0
121 122 123 0
-121 -122 0
-121 -123 0
-122 -123 0
124 125 126 0
-124 -125 0
-124 -126 0
-125 -126 0
127 128 129 0
-127 -128 0
-127 -129 0
-128 -129 0
130 131 132 0
-130 -131 0
-130 -132 0
-131 -132 0
133 134 135 0
-133 -134 0
-133 -135 0
-134 -135 0
136 137 138 0
-1 -4 136 0
-1 -5 137 0
-1 -6 138 0
-2 -4 137 0
-2 -5 138 0
-2 -6 136 0
-3 -4 138 0
-3 -5 136 0
-3 -6 137 0
139 140 141 0
-136 -7 139 0
-136 -8 140 0
-136 -9 141 0
-137 -7 140 0
-137 -8 141 0
-137 -9 139 0
-138 -7 141 0
-138 -8 139 0
-138 -9 140 0
142 143 144 0
-139 -28 142 0
-139 -29 143 0
-139 -30 144 0
-140 -28 143 0
-140 -29 144 0
-140 -30 142 0
-141 -28 144 0
-141 -29 142 0
-141 -30 143 0
145 146 147 0
-142 -31 145 0
-142 -32 146 0
-142 -33 147 0
-143 -31 146 0
-143 -32 147 0
-143 -33 145 0
-144 -31 147 0
-144 -32 145 0
-144 -33 146 0
148 149 150 0
-145 -52 148 0
-145 -53 149 0
-145 -54 150 0
-146 -52 149 0
-146 -53 150 0
-146 -54 148 0
-147 -52 150 0
-147 -53 148 0
-147 -54 149 0
151 152 153 0
-1 -4 151 0
-1 -5 152 0
-1 -6 153 0
-2 -4 152 0
-2 -5 153 0
-2 -6 151 0
-3 -4 153 0
-3 -5 151 0
-3 -6 152 0
154 155 156 0
-151 -10 154 0
-151 -11 155 0
-151 -12 156 0
-152 -10 155 0
-152 -11 156 0
-152 -12 154 0
-153 -10 156 0
-153 -11 154 0
-153 -12 155 0
157 158 159 0
-154 -28 157 0
-154 -29 158 0
-154 -30 159 0
-155 -28 158 0
-155 -29 159 0
-155 -30 157 0
-156 -28 159 0
-156 -29 157 0
-156 -30 158 0
160 161 162 0
-157 -34 160 0
-157 -35 161 0
-157 -36 162 0
-158 -34 161 0
-158 -35 162 0
-158 -36 160 0
-159 -34 162 0
-159 -35 160 0
-159 -36 161 0
163 164 165 0
-160 -55 163 0
-160 -56 164 0
-160 -57 165 0
-161 -55 164 0
-161 -56 165 0
-161 -57 163 0
-162 -55 165 0
-162 -56 163 0
-162 -57 164 0
166 167 168 0
-1 -4 166 0
-1 -5 167 0
-1 -6 168 0
-2 -4 167 0
-2 -5 168 0
-2 -6 166 0
-3 -4 168 0
-3 -5 166 0
-3 -6 167 0
169 170 171 0
-166 -13 169 0
-166 -14 170 0
-166 -15 171 0
-167 -13 170 0
-167 -14 171 0
-167 -15 169 0
-168 -13 171 0
-168 -14 169 0
-168 -15 170 0
172 173 174 0
-169 -28 172 0
-169 -29 173 0
-169 -30 174 0
-170 -28 173 0
-170 -29 174 0
-170 -30 172 0
-171 -28 174 0
-171 -29 172 0
-171 -30 173 0
175 176 177 0
-172 -37 175 0
-172 -38 176 0
-172 -39 177 0
-173 -37 176 0
-173 -38 177 0
-173 -39 175 0
-174 -37 177 0
-174 -38 175 0
-174 -39 176 0
178 179 180 0
-175 -58 178 0
-175 -59 179 0
-175 -60 180 0
-176 -58 179 0
-176 -59 180 0
-176 -60 178 0
-177 -58 180 0
-177 -59 178 0
-177 -60 179 0
181 182 183 0
-1 -4 181 0
-1 -5 182 0
-1 -6 183 0
-2 -4 182 0
-2 -5 183 0
-2 -6 181 0
-3 -4 183 0
-3 -5 181 0
-3 -6 182 0
184 185 186 0
-181 -16 184 0
-181 -17 185 0
-181 -18 186 0
-182 -16 185 0
-182 -17 186 0
-182 -18 184 0
-183 -16 186 0
-183 -17 184 0
-183 -18 185 0
187 188 189 0
-184 -28 187 0
-184 -29 188 0
-184 -30 189 0
-185 -28 188 0
-185 -29 189 0
-185 -30 187 0
-186 -28 189 0
-186 -29 187 0
-186 -30 188 0
190 191 192 0
-187 -40 190 0
-187 -41 191 0
-187 -42 192 0
-188 -40 191 0
-188 -41 192 0
-188 -42 190 0
-189 -40 192 0
-189 -41 190 0
-189 -42 191 0
193 194 195 0
-190 -61 193 0
-190 -62 194 0
-190 -63 195 0
-191 -61 194 0
-191 -62 195 0
-191 -63 193 0
-192 -61 195 0
-192 -62 193 0
-192 -63 194 0
196 197 198 0
-1 -4 196 0
-1 -5 197 0
-1 -6 198 0
-2 -4 197 0
-2 -5 198 0
-2 -6 196 0
-3 -4 198 0
-3 -5 196 0
-3 -6 197 0
199 200 201 0
-196 -19 199 0
-196 -20 200 0
-196 -21 201 0
-197 -19 200 0
-197 -20 201 0
-197 -21 199 0
-198 -19 201 0
-198 -20 199 0
-198 -21 200 0
202 203 204 0
-199 -28 202 0
-199 -29 203 0
-199 -30 204 0
-200 -28 203 0
-200 -29 204 0
-200 -30 202 0
-201 -28 204 0
-201 -29 202 0
-201 -30 203 0
205 206 207 0
-202 -43 205 0
-202 -44 206 0
-202 -45 207 0
-203 -43 206 0
-203 -44 207 0
-203 -45 205 0
-204 -43 207 0
-204 -44 205 0
-204 -45 206 0
208 209 210 0
-205 -64 208 0
-205 -65 209 0
-205 -66 210 0
-206 -64 209 0
-206 -65 210 0
-206 -66 208 0
-207 -64 210 0
-207 -65 208 0
-207 -66 209 0
211 212 213 0
-1 -4 211 0
-1 -5 212 0
-1 -6 213 0
-2 -4 212 0
-2 -5 213 0
-2 -6 211 0
-3 -4 213 0
-3 -5 211 0
-3 -6 212 0
214 215 216 0
-211 -22 214 0
-211 -23 215 0
-211 -24 216 0
-212 -22 215 0
-212 -23 216 0
-212 -24 214 0
-213 -22 216 0
-213 -23 214 0
-213 -24 215 0
217 218 219 0
-214 -28 217 0
-214 -29 218 0
-214 -30 219 0
-215 -28 218 0
-215 -29 219 0
-215 -30 217 0
-216 -28 219 0
-216 -29 217 0
-216 -30 218 0
220 221 222 0
-217 -46 220 0
-217 -47 221 0
-217 -48 222 0
-218 -46 221 0
-218 -47 222 0
-218 -48 220 0
-219 -46 222 0
-219 -47 220 0
-219 -48 221 0
223 224 225 0
-220 -67 223 0
-220 -68 224 0
-220 -69 225 0
-221 -67 224 0
-221 -68 225 0
-221 -69 223 0
-222 -67 225 0
-222 -68 223 0
-222 -69 224 0
226 227 228 0
-1 -4 226 0
-1 -5 227 0
-1 -6 228 0
-2 -4 227 0
-2 -5 228 0
-2 -6 226 0
-3 -4 228 0
-3 -5 226 0
-3 -6 227 0
229 230 231 0
-226 -25 229 0
-226 -26 230 0
-226 -27 231 0
-227 -25 230 0
-227 -26 231 0
-227 -27 229 0
-228 -25 231 0
-228 -26 229 0
-228 -27 230 0
232 233 234 0
-229 -28 232 0
-229 -29 233 0
-229 -30 234 0
-230 -28 233 0
-230 -29 234 0
-230 -30 232 0
-231 -28 234 0
-231 -29 232 0
-231 -30 233 0
235 236 237 0
-232 -49 235 0
-232 -50 236 0
-232 -51 237 0
-233 -49 236 0
-233 -50 237 0
-233 -51 235 0
-234 -49 237 0
-234 -50 235 0
-234 -51 236 0
238 239 240 0
-235 -70 238 0
-235 -71 239 0
-235 -72 240 0
-236 -70 239 0
-236 -71 240 0
-236 -72 238 0
-237 -70 240 0
-237 -71 238 0
-237 -72 239 0
241 242 243 0
-1 -7 241 0
-1 -8 242 0
-1 -9 243 0
-2 -7 242 0
-2 -8 243 0
-2 -9 241 0
-3 -7 243 0
-3 -8 241 0
-3 -9 242 0
244 245 246 0
-241 -10 244 0
-241 -11 245 0
-241 -12 246 0
-242 -10 245 0
-242 -11 246 0
-242 -12 244 0
-243 -10 246 0
-243 -11 244 0
-243 -12 245 0
247 248 249 0
-244 -31 247 0
-244 -32 248 0
-244 -33 249 0
-245 -31 248 0
-245 -32 249 0
-245 -33 247 0
-246 -31 249 0
-246 -32 247 0
-246 -33 248 0
250 251 252 0
-247 -34 250 0
-247 -35 251 0
-247 -36 252 0
-248 -34 251 0
-248 -35 252 0
-248 -36 250 0
-249 -34 252 0
-249 -35 250 0
-249 -36 251 0
253 254 255 0
-250 -73 253 0
-250 -74 254 0
-250 -75 255 0
-251 -73 254 0
-251 -74 255 0
-251 -75 253 0
-252 -73 255 0
-252 -74 253 0
-252 -75 254 0
256 257 258 0
-1 -7 256 0
-1 -8 257 0
-1 -9 258 0
-2 -7 257 0
-2 -8 258 0
-2 -9 256 0
-3 -7 258 0
-3 -8 256 0
-3 -9 257 0
259 260 261 0
-256 -13 259 0
-256 -14 260 0
-256 -15 261 0
-257 -13 260 0
-257 -14 261 0
-257 -15 259 0
-258 -13 261 0
-258 -14 259 0
-258 -15 260 0
262 263 264 0
-259 -31 262 0
-259 -32 263 0
-259 -33 264 0
-260 -31 263 0
-260 -32 264 0
-260 -33 262 0
-261 -31 264 0
-261 -32 262 0
-261 -33 263 0
265 266 267 0
-262 -37 265 0
-262 -38 266 0
-262 -39 267 0
-263 -37 266 0
-263 -38 267 0
-263 -39 265 0
-264 -37 267 0
-264 -38 265 0
-264 -39 266 0
268 269 270 0
-265 -76 268 0
-265 -77 269 0
-265 -78 270 0
-266 -76 269 0
-266 -77 270 0
-266 -78 268 0
-267 -76 270 0
-267 -77 268 0
-267 -78 269 0
271 272 273 0
-1 -7 271 0
-1 -8 272 0
-1 -9 273 0
-2 -7 272 0
-2 -8 273 0
-2 -9 271 0
-3 -7 273 0
-3 -8 271 0
-3 -9 272 0
274 275 276 0
-271 -16 274 0
-271 -17 275 0
-271 -18 276 0
-272 -16 275 0
-272 -17 276 0
-272 -18 274 0
-273 -16 276 0
-273 -17 274 0
-273 -18 275 0
277 278 279 0
-274 -31 277 0
-274 -32 278 0
-274 -33 279 0
-275 -31 278 0
-275 -32 279 0
-275 -33 277 0
-276 -31 279 0
-276 -32 277 0
-276 -33 278 0
280 281 282 0
-277 -40 280 0
-277 -41 281 0
-277 -42 282 0
-278 -40 281 0
-278 -41 282 0
-278 -42 280 0
-279 -40 282 0
-279 -41 280 0
-279 -42 281 0
283 284 285 0
-280 -79 283 0
-280 -80 284 0
-280 -81 285 0
-281 -79 284 0
-281 -80 285 0
-281 -81 283 0
-282 -79 285 0
-282 -80 283 0
-282 -81 284 0
286 287 288 0
-1 -7 286 0
-1 -8 287 0
-1 -9 288 0
-2 -7 287 0
-2 -8 288 0
-2 -9 286 0
-3 -7 288 0
-3 -8 286 0
-3 -9 287 0
289 290 291 0
-286 -19 289 0
-286 -20 290 0
-286 -21 291 0
-287 -19 290 0
-287 -20 291 0
-287 -21 289 0
-288 -19 291 0
-288 -20 289 0
-288 -21 290 0
292 293 294 0
-289 -31 292 0
-289 -32 293 0
-289 -33 294 0
-290 -31 293 0
-290 -32 294 0
-290 -33 292 0
-291 -31 294 0
-291 -32 292 0
-291 -33 293 0
295 296 297 0
-292 -43 295 0
-292 -44 296 0
-292 -45 297 0
-293 -43 296 0
-293 -44 297 0
-293 -45 295 0
-294 -43 297 0
-294 -44 295 0
-294 -45 296 0
298 299 300 0
-295 -82 298 0
-295 -83 299 0
-295 -84 300 0
-296 -82 299 0
-296 -83 300 0
-296 -84 298 0
-297 -82 300 0
-297 -83 298 0
-297 -84 299 0
301 302 303 0
-1 -7 301 0
-1 -8 302 0
-1 -9 303 0
-2 -7 302 0
-2 -8 303 0
-2 -9 301 0
-3 -7 303 0
-3 -8 301 0
-3 -9 302 0
304 305 306 0
-301 -22 304 0
-301 -23 305 0
-301 -24 306 0
-302 -22 305 0
-302 -23 306 0
-302 -24 304 0
-303 -22 306 0
-303 -23 304 0
-303 -24 305 0
307 308 309 0
-304 -31 307 0
-304 -32 308 0
-304 -33 309 0
-305 -31 308 0
-305 -32 309 0
-305 -33 307 0
-306 -31 309 0
-306 -32 307 0
-306 -33 308 0
310 311 312 0
-307 -46 310 0
-307 -47 311 0
-307 -48 312 0
-308 -46 311 0
-308 -47 312 0
-308 -48 310 0
-309 -46 312 0
-309 -47 310 0
-309 -48 311 0
313 314 315 0
-310 -85 313 0
-310 -86 314 0
-310 -87 315 0
-311 -85 314 0
-311 -86 315 0
-311 -87 313 0
-312 -85 315 0
-312 -86 313 0
-312 -87 314 0
316 317 318 0
-1 -7 316 0
-1 -8 317 0
-1 -9 318 0
-2 -7 317 0
-2 -8 318 0
-2 -9 316 0
-3 -7 318 0
-3 -8 316 0
-3 -9 317 0
319 320 321 0
-316 -25 319 0
-316 -26 320 0
-316 -27 321 0
-317 -25 320 0
-317 -26 321 0
-317 -27 319 0
-318 -25 321 0
-318 -26 319 0
-318 -27 320 0
322 323 324 0
-319 -31 322 0
-319 -32 323 0
-319 -33 324 0
-320 -31 323 0
-320 -32 324 0
-320 -33 322 0
-321 -31 324 0
-321 -32 322 0
-321 -33 323 0
325 326 327 0
-322 -49 325 0
-322 -50 326 0
-322 -51 327 0
-323 -49 326 0
-323 -50 327 0
-323 -51 325 0
-324 -49 327 0
-324 -50 325 0
-324 -51 326 0
328 329 330 0
-325 -88 328 0
-325 -89 329 0
-325 -90 330 0
-326 -88 329 0
-326 -89 330 0
-326 -90 328 0
-327 -88 330 0
-327 -89 328 0
-327 -90 329 0
331 332 333 0
-1 -10 331 0
-1 -11 332 0
-1 -12 333 0
-2 -10 332 0
-2 -11 333 0
-2 -12 331 0
-3 -10 333 0
-3 -11 331 0
-3 -12 332 0
334 335 336 0
-331 -13 334 0
-331 -14 335 0
-331 -15 336 0
-332 -13 335 0
-332 -14 336 0
-332 -15 334 0
-333 -13 336 0
-333 -14 334 0
-333 -15 335 0
337 338 339 0
-334 -34 337 0
-334 -35 338 0
-334 -36 339 0
-335 -34 338 0
-335 -35 339 0
-335 -36 337 0
-336 -34 339 0
-336 -35 337 0
-336 -36 338 0
340 341 342 0
-337 -37 340 0
-337 -38 341 0
-337 -39 342 0
-338 -37 341 0
-338 -38 342 0
-338 -39 340 0
-339 -37 342 0
-339 -38 340 0
-339 -39 341 0
343 344 345 0
-340 -91 343 0
-340 -92 344 0
-340 -93 345 0
-341 -91 344 0
-341 -92 345 0
-341 -93 343 0
-342 -91 345 0
-342 -92 343 0
-342 -93 344 0
346 347 348 0
-1 -10 346 0
-1 -11 347 0
-1 -12 348 0
-2 -10 347 0
-2 -11 348 0
-2 -12 346 0
-3 -10 348 0
-3 -11 346 0
-3 -12 347 0
349 350 351 0
-346 -16 349 0
-346 -17 350 0
-346 -18 351 0
-347 -16 350 0
-347 -17 351 0
-347 -18 349 0
-348 -16 351 0
-348 -17 349 0
-348 -18 350 0
352 353 354 0
-349 -34 352 0
-349 -35 353 0
-349 -36 354 0
-350 -34 353 0
-350 -35 354 0
-350 -36 352 0
-351 -34 354 0
-351 -35 352 0
-351 -36 353 0
355 356 357 0
-352 -40 355 0
-352 -41 356 0
-352 -42 357 0
-353 -40 356 0
-353 -41 357 0
-353 -42 355 0
-354 -40 357 0
-354 -41 355 0
-354 -42 356 0
358 359 360 0
-355 -94 358 0
-355 -95 359 0
-355 -96 360 0
-356 -94 359 0
-356 -95 360 0
-356 -96 358 0
-357 -94 360 0
-357 -95 358 0
-357 -96 359 0
361 362 363 0
-1 -10 361 0
-1 -11 362 0
-1 -12 363 0
-2 -10 362 0
-2 -11 363 0
-2 -12 361 0
-3 -10 363 0
-3 -11 361 0
-3 -12 362 0
364 365 366 0
-361 -19 364 0
-361 -20 365 0
-361 -21 366 0
-362 -19 365 0
-362 -20 366 0
-362 -21 364 0
-363 -19 366 0
-363 -20 364 0
-363 -21 365 0
367 368 369 0
-364 -34 367 0
-364 -35 368 0
-364 -36 369 0
-365 -34 368 0
-365 -35 369 0
-365 -36 367 0
-366 -34 369 0
-366 -35 367 0
-366 -36 368 0
370 371 372 0
-367 -43 370 0
-367 -44 371 0
-367 -45 372 0
-368 -43 371 0
-368 -44 372 0
-368 -45 370 0
-369 -43 372 0
-369 -44 370 0
-369 -45 371 0
373 374 375 0
-370 -97 373 0
-370 -98 374 0
-370 -99 375 0
-371 -97 374 0
-371 -98 375 0
-371 -99 373 0
-372 -97 375 0
-372 -98 373 0
-372 -99 374 0
376 377 378 0
-1 -10 376 0
-1 -11 377 0
-1 -12 378 0
-2 -10 377 0
-2 -11 378 0
-2 -12 376 0
-3 -10 378 0
-3 -11 376 0
-3 -12 377 0
379 380 381 0
-376 -22 379 0
-376 -23 380 0
-376 -24 381 0
-377 -22 380 0
-377 -23 381 0
-377 -24 379 0
-378 -22 381 0
-378 -23 379 0
-378 -24 380 0
382 383 384 0
-379 -34 382 0
-379 -35 383 0
-379 -36 384 0
-380 -34 383 0
-380 -35 384 0
-380 -36 382 0
-381 -34 384 0
-381 -35 382 0
-381 -36 383 0
385 386 387 0
-382 -46 385 0
-382 -47 386 0
-382 -48 387 0
-383 -46 386 0
-383 -47 387 0
-383 -48 385 0
-384 -46 387 0
-384 -47 385 0
-384 -48 386 0
388 389 390 0
-385 -100 388 0
-385 -101 389 0
-385 -102 390 0
-386 -100 389 0
-386 -101 390 0
-386 -102 388 0
-387 -100 390 0
-387 -101 388 0
-387 -102 389 0
391 392 393 0
-1 -10 391 0
-1 -11 392 0
-1 -12 393 0
-2 -10 392 0
-2 -11 393 0
-2 -12 391 0
-3 -10 393 0
-3 -11 391 0
-3 -12 392 0
394 395 396 0
-391 -25 394 0
-391 -26 395 0
-391 -27 396 0
-392 -25 395 0
-392 -26 396 0
-392 -27 394 0
-393 -25 396 0
-393 -26 394 0
-393 -27 395 0
397 398 399 0
-394 -34 397 0
-394 -35 398 0
-394 -36 399 0
-395 -34 398 0
-395 -35 399 0
-395 -36 397 0
-396 -34 399 0
-396 -35 397 0
-396 -36 398 0
400 401 402 0
-397 -49 400 0
-397 -50 401 0
-397 -51 402 0
-398 -49 401 0
-398 -50 402 0
-398 -51 400 0
-399 -49 402 0
-399 -50 400 0
-399 -51 401 0
403 404 405 0
-400 -103 403 0
-400 -104 404 0
-400 -105 405 0
-401 -103 404 0
-401 -104 405 0
-401 -105 403 0
-402 -103 405 0
-402 -104 403 0
-402 -105 404 0
406 407 408 0
-1 -13 406 0
-1 -14 407 0
-1 -15 408 0
-2 -13 407 0
-2 -14 408 0
-2 -15 406 0
-3 -13 408 0
-3 -14 406 0
-3 -15 407 0
409 410 411 0
-406 -16 409 0
-406 -17 410 0
-406 -18 411 0
-407 -16 410 0
-407 -17 411 0
-407 -18 409 0
-408 -16 411 0
-408 -17 409 0
-408 -18 410 0
412 413 414 0
-409 -37 412 0
-409 -38 413 0
-409 -39 414 0
-410 -37 413 0
-410 -38 414 0
-410 -39 412 0
-411 -37 414 0
-411 -38 412 0
-411 -39 413 0
415 416 417 0
-412 -40 415 0
-412 -41 416 0
-412 -42 417 0
-413 -40 416 0
-413 -41 417 0
-413 -42 415 0
-414 -40 417 0
-414 -41 415 0
-414 -42 416 0
418 419 420 0
-415 -106 418 0
-415 -107 419 0
-415 -108 420 0
-416 -106 419 0
-416 -107 420 0
-416 -108 418 0
-417 -106 420 0
-417 -107 418 0
-417 -108 419 0
421 422 423 0
-1 -13 421 0
-1 -14 422 0
-1 -15 423 0
-2 -13 422 0
-2 -14 423 0
-2 -15 421 0
-3 -13 423 0
-3 -14 421 0
-3 -15 422 0
424 425 426 0
-421 -19 424 0
-421 -20 425 0
-421 -21 426 0
-422 -19 425 0
-422 -20 426 0
-422 -21 424 0
-423 -19 426 0
-423 -20 424 0
-423 -21 425 0
427 428 429 0
-424 -37 427 0
-424 -38 428 0
-424 -39 429 0
-425 -37 428 0
-425 -38 429 0
-425 -39 427 0
-426 -37 429 0
-426 -38 427 0
-426 -39 428 0
430 431 432 0
-427 -43 430 0
-427 -44 431 0
-427 -45 432 0
-428 -43 431 0
-428 -44 432 0
-428 -45 430 0
-429 -43 432 0
-429 -44 430 0
-429 -45 431 0
433 434 435 0
-430 -109 433 0
-430 -110 434 0
-430 -111 435 0
-431 -109 434 0
-431 -110 435 0
-431 -111 433 0
-432 -109 435 0
-432 -110 433 0
-432 -111 434 0
436 437 438 0
-1 -13 436 0
-1 -14 437 0
-1 -15 438 0
-2 -13 437 0
-2 -14 438 0
-2 -15 436 0
-3 -13 438 0
-3 -14 436 0
-3 -15 437 0
439 440 441 0
-436 -22 439 0
-436 -23 440 0
-436 -24 441 0
-437 -22 440 0
-437 -23 441 0
-437 -24 439 0
-438 -22 441 0
-438 -23 439 0
-438 -24 440 0
442 443 444 0
-439 -37 442 0
-439 -38 443 0
-439 -39 444 0
-440 -37 443 0
-440 -38 444 0
-440 -39 442 0
-441 -37 444 0
-441 -38 442 0
-441 -39 443 0
445 446 447 0
-442 -46 445 0
-442 -47 446 0
-442 -48 447 0
-443 -46 446 0
-443 -47 447 0
-443 -48 445 0
-444 -46 447 0
-444 -47 445 0
-444 -48 446 0
448 449 450 0
-445 -112 448 0
-445 -113 449 0
-445 -114 450 0
-446 -112 449 0
-446 -113 450 0
-446 -114 448 0
-447 -112 450 0
-447 -113 448 0
-447 -114 449 0
451 452 453 0
-1 -13 451 0
-1 -14 452 0
-1 -15 453 0
-2 -13 452 0
-2 -14 453 0
-2 -15 451 0
-3 -13 453 0
-3 -14 451 0
-3 -15 452 0
454 455 456 0
-451 -25 454 0
-451 -26 455 0
-451 -27 456 0
-452 -25 455 0
-452 -26 456 0
-452 -27 454 0
-453 -25 456 0
-453 -26 454 0
-453 -27 455 0
457 458 459 0
-454 -37 457 0
-454 -38 458 0
-454 -39 459 0
-455 -37 458 0
-455 -38 459 0
-455 -39 457 0
-456 -37 459 0
-456 -38 457 0
-456 -39 458 0
460 461 462 0
-457 -49 460 0
-457 -50 461 0
-457 -51 462 0
-458 -49 461 0
-458 -50 462 0
-458 -51 460 0
-459 -49 462 0
-459 -50 460 0
-459 -51 461 0
463 464 465 0
-460 -115 463 0
-460 -116 464 0
-460 -117 465 0
-461 -115 464 0
-461 -116 465 0
-461 -117 463 0
-462 -115 465 0
-462 -116 463 0
-462 -117 464 0
466 467 468 0
-1 -16 466 0
-1 -17 467 0
-1 -18 468 0
-2 -16 467 0
-2 -17 468 0
-2 -18 466 0
-3 -16 468 0
-3 -17 466 0
-3 -18 467 0
469 470 471 0
-466 -19 469 0
-466 -20 470 0
-466 -21 471 0
-467 -19 470 0
-467 -20 471 0
-467 -21 469 0
-468 -19 471 0
-468 -20 469 0
-468 -21 470 0
472 473 474 0
-469 -40 472 0
-469 -41 473 0
-469 -42 474 0
-470 -40 473 0
-470 -41 474 0
-470 -42 472 0
-471 -40 474 0
-471 -41 472 0
-471 -42 473 0
475 476 477 0
-472 -43 475 0
-472 -44 476 0
-472 -45 477 0
-473 -43 476 0
-473 -44 477 0
-473 -45 475 0
-474 -43 477 0
-474 -44 475 0
-474 -45 476 0
478 479 480 0
-475 -118 478 0
-475 -119 479 0
-475 -120 480 0
-476 -118 479 0
-476 -119 480 0
-476 -120 478 0
-477 -118 480 0
-477 -119 478 0
-477 -120 479 0
481 482 483 0
-1 -16 481 0
-1 -17 482 0
-1 -18 483 0
-2 -16 482 0
-2 -17 483 0
-2 -18 481 0
-3 -16 483 0
-3 -17 481 0
-3 -18 482 0
484 485 486 0
-481 -22 484 0
-481 -23 485 0
-481 -24 486 0
-482 -22 485 0
-482 -23 486 0
-482 -24 484 0
-483 -22 486 0
-483 -23 484 0
-483 -24 485 0
487 488 489 0
-484 -40 487 0
-484 -41 488 0
-484 -42 489 0
-485 -40 488 0
-485 -41 489 0
-485 -42 487 0
-486 -40 489 0
-486 -41 487 0
-486 -42 488 0
490 491 492 0
-487 -46 490 0
-487 -47 491 0
-487 -48 492 0
-488 -46 491 0
-488 -47 492 0
-488 -48 490 0
-489 -46 492 0
-489 -47 490 0
-489 -48 491 0
493 494 495 0
-490 -121 493 0
-490 -122 494 0
-490 -123 495 0
-491 -121 494 0
-491 -122 495 0
-491 -123 493 0
-492 -121 495 0
-492 -122 493 0
-492 -123 494 0
496 497 498 0
-1 -16 496 0
-1 -17 497 0
-1 -18 498 0
-2 -16 497 0
-2 -17 498 0
-2 -18 496 0
-3 -16 498 0
-3 -17 496 0
-3 -18 497 0
499 500 501 0
-496 -25 499 0
-496 -26 500 0
-496 -27 501 0
-497 -25 500 0
-497 -26 501 0
-497 -27 499 0
-498 -25 501 0
-498 -26 499 0
-498 -27 500 0
502 503 504 0
-499 -40 502 0
-499 -41 503 0
-499 -42 504 0
-500 -40 503 0
-500 -41 504 0
-500 -42 502 0
-501 -40 504 0
-501 -41 502 0
-501 -42 503 0
505 506 507 0
-502 -49 505 0
-502 -50 506 0
-502 -51 507 0
-503 -49 506 0
-503 -50 507 0
-503 -51 505 0
-504 -49 507 0
-504 -50 505 0
-504 -51 506 0
508 509 510 0
-505 -124 508 0
-505 -125 509 0
-505 -126 510 0
-506 -124 509 0
-506 -125 510 0
-506 -126 508 0
-507 -124 510 0
-507 -125 508 0
-507 -126 509 0
511 512 513 0
-1 -19 511 0
-1 -20 512 0
-1 -21 513 0
-2 -19 512 0
-2 -20 513 0
-2 -21 511 0
-3 -19 513 0
-3 -20 511 0
-3 -21 512 0
514 515 516 0
-511 -22 514 0
-511 -23 515 0
-511 -24 516 0
-512 -22 515 0
-512 -23 516 0
-512 -24 514 0
-513 -22 516 0
-513 -23 514 0
-513 -24 515 0
517 518 519 0
-514 -43 517 0
-514 -44 518 0
-514 -45 519 0
-515 -43 518 0
-515 -44 519 0
-515 -45 517 0
-516 -43 519 0
-516 -44 517 0
-516 -45 518 0
520 521 522 0
-517 -46 520 0
-517 -47 521 0
-517 -48 522 0
-518 -46 521 0
-518 -47 522 0
-518 -48 520 0
-519 -46 522 0
-519 -47 520 0
-519 -48 521 0
523 524 525 0
-520 -127 523 0
-520 -128 524 0
-520 -129 525 0
-521 -127 524 0
-521 -128 525 0
-521 -129 523 0
-522 -127 525 0
-522 -128 523 0
-522 -129 524 0
526 527 528 0
-1 -19 526 0
-1 -20 527 0
-1 -21 528 0
-2 -19 527 0
-2 -20 528 0
-2 -21 526 0
-3 -19 528 0
-3 -20 526 0
-3 -21 527 0
529 530 531 0
-526 -25 529 0
-526 -26 530 0
-526 -27 531 0
-527 -25 530 0
-527 -26 531 0
-527 -27 529 0
-528 -25 531 0
-528 -26 529 0
-528 -27 530 0
532 533 534 0
-529 -43 532 0
-529 -44 533 0
-529 -45 534 0
-530 -43 533 0
-530 -44 534 0
-530 -45 532 0
-531 -43 534 0
-531 -44 532 0
-531 -45 533 0
535 536 537 0
-532 -49 535 0
-532 -50 536 0
-532 -51 537 0
-533 -49 536 0
-533 -50 537 0
-533 -51 535 0
-534 -49 537 0
-534 -50 535 0
-534 -51 536 0
538 539 540 0
-535 -130 538 0
-535 -131 539 0
-535 -132 540 0
-536 -130 539 0
-536 -131 540 0
-536 -132 538 0
-537 -130 540 0
-537 -131 538 0
-537 -132 539 0
541 542 543 0
-1 -22 541 0
-1 -23 542 0
-1 -24 543 0
-2 -22 542 0
-2 -23 543 0
-2 -24 541 0
-3 -22 543 0
-3 -23 541 0
-3 -24 542 0
544 545 546 0
-541 -25 544 0
-541 -26 545 0
-541 -27 546 0
-542 -25 545 0
-542 -26 546 0
-542 -27 544 0
-543 -25 546 0
-543 -26 544 0
-543 -27 545 0
547 548 549 0
-544 -46 547 0
-544 -47 548 0
-544 -48 549 0
-545 -46 548 0
-545 -47 549 0
-545 -48 547 0
-546 -46 549 0
-546 -47 547 0
-546 -48 548 0
550 551 552 0
-547 -49 550 0
-547 -50 551 0
-547 -51 552 0
-548 -49 551 0
-548 -50 552 0
-548 -51 550 0
-549 -49 552 0
-549 -50 550 0
-549 -51 551 0
553 554 555 0
-550 -133 553 0
-550 -134 554 0
-550 -135 555 0
-551 -133 554 0
-551 -134 555 0
-551 -135 553 0
-552 -133 555 0
-552 -134 553 0
-552 -135 554 0
556 557 558 0
-4 -7 556 0
-4 -8 557 0
-4 -9 558 0
-5 -7 557 0
-5 -8 558 0
-5 -9 556 0
-6 -7 558 0
-6 -8 556 0
-6 -9 557 0
559 560 561 0
-556 -10 559 0
-556 -11 560 0
-556 -12 561 0
-557 -10 560 0
-557 -11 561 0
-557 -12 559 0
-558 -10 561 0
-558 -11 559 0
-558 -12 560 0
562 563 564 0
-559 -52 562 0
-559 -53 563 0
-559 -54 564 0
-560 -52 563 0
-560 -53 564 0
-560 -54 562 0
-561 -52 564 0
-561 -53 562 0
-561 -54 563 0
565 566 567 0
-562 -55 565 0
-562 -56 566 0
-562 -57 567 0
-563 -55 566 0
-563 -56 567 0
-563 -57 565 0
-564 -55 567 0
-564 -56 565 0
-564 -57 566 0
568 569 570 0
-565 -73 568 0
-565 -74 569 0
-565 -75 570 0
-566 -73 569 0
-566 -74 570 0
-566 -75 568 0
-567 -73 570 0
-567 -74 568 0
-567 -75 569 0
571 572 573 0
-4 -7 571 0
-4 -8 572 0
-4 -9 573 0
-5 -7 572 0
-5 -8 573 0
-5 -9 571 0
-6 -7 573 0
-6 -8 571 0
-6 -9 572 0
574 575 576 0
-571 -13 574 0
-571 -14 575 0
-571 -15 576 0
-572 -13 575 0
-572 -14 576 0
-572 -15 574 0
-573 -13 576 0
-573 -14 574 0
-573 -15 575 0
577 578 579 0
-574 -52 577 0
-574 -53 578 0
-574 -54 579 0
-575 -52 578 0
-575 -53 579 0
-575 -54 577 0
-576 -52 579 0
-576 -53 577 0
-576 -54 578 0
580 581 582 0
-577 -58 580 0
-577 -59 581 0
-577 -60 582 0
-578 -58 581 0
-578 -59 582 0
-578 -60 580 0
-579 -58 582 0
-579 -59 580 0
-579 -60 581 0
583 584 585 0
-580 -76 583 0
-580 -77 584 0
-580 -78 585 0
-581 -76 584 0
-581 -77 585 0
-581 -78 583 0
-582 -76 585 0
-582 -77 583 0
-582 -78 584 0
586 587 588 0
-4 -7 586 0
-4 -8 587 0
-4 -9 588 0
-5 -7 587 0
-5 -8 588 0
-5 -9 586 0
-6 -7 588 0
-6 -8 586 0
-6 -9 587 0
589 590 591 0
-586 -16 589 0
-586 -17 590 0
-586 -18 591 0
-587 -16 590 0
-587 -17 591 0
-587 -18 589 0
-588 -16 591 0
-588 -17 589 0
-588 -18 590 0
592 593 594 0
-589 -52 592 0
-589 -53 593 0
-589 -54 594 0
-590 -52 593 0
-590 -53 594 0
-590 -54 592 0
-591 -52 594 0
-591 -53 592 0
-591 -54 593 0
595 596 597 0
-592 -61 595 0
-592 -62 596 0
-592 -63 597 0
-593 -61 596 0
-593 -62 597 0
-593 -63 595 0
-594 -61 597 0
-594 -62 595 0
-594 -63 596 0
598 599 600 0
-595 -79 598 0
-595 -80 599 0
-595 -81 600 0
-596 -79 599 0
-596 -80 600 0
-596 -81 598 0
-597 -79 600 0
-597 -80 598 0
-597 -81 599 0
601 602 603 0
-4 -7 601 0
-4 -8 602 0
-4 -9 603 0
-5 -7 602 0
-5 -8 603 0
-5 -9 601 0
-6 -7 603 0
-6 -8 601 0
-6 -9 602 0
604 605 606 0
-601 -19 604 0
-601 -20 605 0
-601 -21 606 0
-602 -19 605 0
-602 -20 606 0
-602 -21 604 0
-603 -19 606 0
-603 -20 604 0
-603 -21 605 0
607 608 609 0
-604 -52 607 0
-604 -53 608 0
-604 -54 609 0
-605 -52 608 0
-605 -53 609 0
-605 -54 607 0
-606 -52 609 0
-606 -53 607 0
-606 -54 608 0
610 611 612 0
-607 -64 610 0
-607 -65 611 0
-607 -66 612 0
-608 -64 611 0
-608 -65 612 0
-608 -66 610 0
-609 -64 612 0
-609 -65 610 0
-609 -66 611 0
613 614 615 0
-610 -82 613 0
-610 -83 614 0
-610 -84 615 0
-611 -82 614 0
-611 -83 615 0
-611 -84 613 0
-612 -82 615 0
-612 -83 613 0
-612 -84 614 0
616 617 618 0
-4 -7 616 0
-4 -8 617 0
-4 -9 618 0
-5 -7 617 0
-5 -8 618 0
-5 -9 616 0
-6 -7 618 0
-6 -8 616 0
-6 -9 617 0
619 620 621 0
-616 -22 619 0
-616 -23 620 0
-616 -24 621 0
-617 -22 620 0
-617 -23 621 0
-617 -24 619 0
-618 -22 621 0
-618 -23 619 0
-618 -24 620 0
622 623 624 0
-619 -52 622 0
-619 -53 623 0
-619 -54 624 0
-620 -52 623 0
-620 -53 624 0
-620 -54 622 0
-621 -52 624 0
-621 -53 622 0
-621 -54 623 0
625 626 627 0
-622 -67 625 0
-622 -68 626 0
-622 -69 627 0
-623 -67 626 0
-623 -68 627 0
-623 -69 625 0
-624 -67 627 0
-624 -68 625 0
-624 -69 626 0
628 629 630 0
-625 -85 628 0
-625 -86 629 0
-625 -87 630 0
-626 -85 629 0
-626 -86 630 0
-626 -87 628 0
-627 -85 630 0
-627 -86 628 0
-627 -87 629 0
631 632 633 0
-4 -7 631 0
-4 -8 632 0
-4 -9 633 0
-5 -7 632 0
-5 -8 633 0
-5 -9 631 0
-6 -7 633 0
-6 -8 631 0
-6 -9 632 0
634 635 636 0
-631 -25 634 0
-631 -26 635 0
-631 -27 636 0
-632 -25 635 0
-632 -26 636 0
-632 -27 634 0
-633 -25 636 0
-633 -26 634 0
-633 -27 635 0
637 638 639 0
-634 -52 637 0
-634 -53 638 0
-634 -54 639 0
-635 -52 638 0
-635 -53 639 0
-635 -54 637 0
-636 -52 639 0
-636 -53 637 0
-636 -54 638 0
640 641 642 0
-637 -70 640 0
-637 -71 641 0
-637 -72 642 0
-638 -70 641 0
-638 -71 642 0
-638 -72 640 0
-639 -70 642 0
-639 -71 640 0
-639 -72 641 0
643 644 645 0
-640 -88 643 0
-640 -89 644 0
-640 -90 645 0
-641 -88 644 0
-641 -89 645 0
-641 -90 643 0
-642 -88 645 0
-642 -89 643 0
-642 -90 644 0
646 647 648 0
-4 -10 646 0
-4 -11 647 0
-4 -12 648 0
-5 -10 647 0
-5 -11 648 0
-5 -12 646 0
-6 -10 648 0
-6 -11 646 0
-6 -12 647 0
649 650 651 0
-646 -13 649 0
-646 -14 650 0
-646 -15 651 0
-647 -13 650 0
-647 -14 651 0
-647 -15 649 0
-648 -13 651 0
-648 -14 649 0
-648 -15 650 0
652 653 654 0
-649 -55 652 0
-649 -56 653 0
-649 -57 654 0
-650 -55 653 0
-650 -56 654 0
-650 -57 652 0
-651 -55 654 0
-651 -56 652 0
-651 -57 653 0
655 656 657 0
-652 -58 655 0
-652 -59 656 0
-652 -60 657 0
-653 -58 656 0
-653 -59 657 0
-653 -60 655 0
-654 -58 657 0
-654 -59 655 0
-654 -60 656 0
658 659 660 0
-655 -91 658 0
-655 -92 659 0
-655 -93 660 0
-656 -91 659 0
-656 -92 660 0
-656 -93 658 0
-657 -91 660 0
-657 -92 658 0
-657 -93 659 0
661 662 663 0
-4 -10 661 0
-4 -11 662 0
-4 -12 663 0
-5 -10 662 0
-5 -11 663 0
-5 -12 661 0
-6 -10 663 0
-6 -11 661 0
-6 -12 662 0
664 665 666 0
-661 -16 664 0
-661 -17 665 0
-661 -18 666 0
-662 -16 665 0
-662 -17 666 0
-662 -18 664 0
-663 -16 666 0
-663 -17 664 0
-663 -18 665 0
667 668 669 0
-664 -55 667 0
-664 -56 668 0
-664 -57 669 0
-665 -55 668 0
-665 -56 669 0
-665 -57 667 0
-666 -55 669 0
-666 -56 667 0
-666 -57 668 0
670 671 672 0
-667 -61 670 0
-667 -62 671 0
-667 -63 672 0
-668 -61 671 0
-668 -62 672 0
-668 -63 670 0
-669 -61 672 0
-669 -62 670 0
-669 -63 671 0
673 674 675 0
-670 -94 673 0
-670 -95 674 0
-670 -96 675 0
-671 -94 674 0
-671 -95 675 0
-671 -96 673 0
-672 -94 675 0
-672 -95 673 0
-672 -96 674 0
676 677 678 0
-4 -10 676 0
-4 -11 677 0
-4 -12 678 0
-5 -10 677 0
-5 -11 678 0
-5 -12 676 0
-6 -10 678 0
-6 -11 676 0
-6 -12 677 0
679 680 681 0
-676 -19 679 0
-676 -20 680 0
-676 -21 681 0
-677 -19 680 0
-677 -20 681 0
-677 -21 679 0
-678 -19 681 0
-678 -20 679 0
-678 -21 680 0
682 683 684 0
-679 -55 682 0
-679 -56 683 0
-679 -57 684 0
-680 -55 683 0
-680 -56 684 0
-680 -57 682 0
-681 -55 684 0
-681 -56 682 0
-681 -57 683 0
685 686 687 0
-682 -64 685 0
-682 -65 686 0
-682 -66 687 0
-683 -64 686 0
-683 -65 687 0
-683 -66 685 0
-684 -64 687 0
-684 -65 685 0
-684 -66 686 0
688 689 690 0
-685 -97 688 0
-685 -98 689 0
-685 -99 690 0
-686 -97 689 0
-686 -98 690 0
-686 -99 688 0
-687 -97 690 0
-687 -98 688 0
-687 -99 689 0
691 692 693 0
-4 -10 691 0
-4 -11 692 0
-4 -12 693 0
-5 -10 692 0
-5 -11 693 0
-5 -12 691 0
-6 -10 693 0
-6 -11 691 0
-6 -12 692 0
694 695 696 0
-691 -22 694 0
-691 -23 695 0
-691 -24 696 0
-692 -22 695 0
-692 -23 696 0
-692 -24 694 0
-693 -22 696 0
-693 -23 694 0
-693 -24 695 0
697 698 699 0
-694 -55 697 0
-694 -56 698 0
-694 -57 699 0
-695 -55 698 0
-695 -56 699 0
-695 -57 697 0
-696 -55 699 0
-696 -56 697 0
-696 -57 698 0
700 701 702 0
-697 -67 700 0
-697 -68 701 0
-697 -69 702 0
-698 -67 701 0
-698 -68 702 0
-698 -69 700 0
-699 -67 702 0
-699 -68 700 0
-699 -69 701 0
703 704 705 0
-700 -100 703 0
-700 -101 704 0
-700 -102 705 0
-701 -100 704 0
-701 -101 705 0
-701 -102 703 0
-702 -100 705 0
-702 -101 703 0
-702 -102 704 0
706 707 708 0
-4 -10 706 0
-4 -11 707 0
-4 -12 708 0
-5 -10 707 0
-5 -11 708 0
-5 -12 706 0
-6 -10 708 0
-6 -11 706 0
-6 -12 707 0
709 710 711 0
-706 -25 709 0
-706 -26 710 0
-706 -27 711 0
-707 -25 710 0
-707 -26 711 0
-707 -27 709 0
-708 -25 711 0
-708 -26 709 0
-708 -27 710 0
712 713 714 0
-709 -55 712 0
-709 -56 713 0
-709 -57 714 0
-710 -55 713 0
-710 -56 714 0
-710 -57 712 0
-711 -55 714 0
-711 -56 712 0
-711 -57 713 0
715 716 717 0
-712 -70 715 0
-712 -71 716 0
-712 -72 717 0
-713 -70 716 0
-713 -71 717 0
-713 -72 715 0
-714 -70 717 0
-714 -71 715 0
-714 -72 716 0
718 719 720 0
-715 -103 718 0
-715 -104 719 0
-715 -105 720 0
-716 -103 719 0
-716 -104 720 0
-716 -105 718 0
-717 -103 720 0
-717 -104 718 0
-717 -105 719 0
721 722 723 0
-4 -13 721 0
-4 -14 722 0
-4 -15 723 0
-5 -13 722 0
-5 -14 723 0
-5 -15 721 0
-6 -13 723 0
-6 -14 721 0
-6 -15 722 0
724 725 726 0
-721 -16 724 0
-721 -17 725 0
-721 -18 726 0
-722 -16 725 0
-722 -17 726 0
-722 -18 724 0
-723 -16 726 0
-723 -17 724 0
-723 -18 725 0
727 728 729 0
-724 -58 727 0
-724 -59 728 0
-724 -60 729 0
-725 -58 728 0
-725 -59 729 0
-725 -60 727 0
-726 -58 729 0
-726 -59 727 0
-726 -60 728 0
730 731 732 0
-727 -61 730 0
-727 -62 731 0
-727 -63 732 0
-728 -61 731 0
-728 -62 732 0
-728 -63 730 0
-729 -61 732 0
-729 -62 730 0
-729 -63 731 0
733 734 735 0
-730 -106 733 0
-730 -107 734 0
-730 -108 735 0
-731 -106 734 0
-731 -107 735 0
-731 -108 733 0
-732 -106 735 0
-732 -107 733 0
-732 -108 734 0
736 737 738 0
-4 -13 736 0
-4 -14 737 0
-4 -15 738 0
-5 -13 737 0
-5 -14 738 0
-5 -15 736 0
-6 -13 738 0
-6 -14 736 0
-6 -15 737 0
739 740 741 0
-736 -19 739 0
-736 -20 740 0
-736 -21 741 0
-737 -19 740 0
-737 -20 741 0
-737 -21 739 0
-738 -19 741 0
-738 -20 739 0
-738 -21 740 0
742 743 744 0
-739 -58 742 0
-739 -59 743 0
-739 -60 744 0
-740 -58 743 0
-740 -59 744 0
-740 -60 742 0
-741 -58 744 0
-741 -59 742 0
-741 -60 743 0
745 746 747 0
-742 -64 745 0
-742 -65 746 0
-742 -66 747 0
-743 -64 746 0
-743 -65 747 0
-743 -66 745 0
-744 -64 747 0
-744 -65 745 0
-744 -66 746 0
748 749 750 0
-745 -109 748 0
-745 -110 749 0
-745 -111 750 0
-746 -109 749 0
-746 -110 750 0
-746 -111 748 0
-747 -109 750 0
-747 -110 748 0
-747 -111 749 0
751 752 753 0
-4 -13 751 0
-4 -14 752 0
-4 -15 753 0
-5 -13 752 0
-5 -14 753 0
-5 -15 751 0
-6 -13 753 0
-6 -14 751 0
-6 -15 752 0
754 755 756 0
-751 -22 754 0
-751 -23 755 0
-751 -24 756 0
-752 -22 755 0
-752 -23 756 0
-752 -24 754 0
-753 -22 756 0
-753 -23 754 0
-753 -24 755 0
757 758 759 0
-754 -58 757 0
-754 -59 758 0
-754 -60 759 0
-755 -58 758 0
-755 -59 759 0
-755 -60 757 0
-756 -58 759 0
-756 -59 757 0
-756 -60 758 0
760 761 762 0
-757 -67 760 0
-757 -68 761 0
-757 -69 762 0
-758 -67 761 0
-758 -68 762 0
-758 -69 760 0
-759 -67 762 0
-759 -68 760 0
-759 -69 761 0
763 764 765 0
-760 -112 763 0
-760 -113 764 0
-760 -114 765 0
-761 -112 764 0
-761 -113 765 0
-761 -114 763 0
-762 -112 765 0
-762 -113 763 0
-762 -114 764 0
766 767 768 0
-4 -13 766 0
-4 -14 767 0
-4 -15 768 0
-5 -13 767 0
-5 -14 768 0
-5 -15 766 0
-6 -13 768 0
-6 -14 766 0
-6 -15 767 0
769 770 771 0
-766 -25 769 0
-766 -26 770 0
-766 -27 771 0
-767 -25 770 0
-767 -26 771 0
-767 -27 769 0
-768 -25 771 0
-768 -26 769 0
-768 -27 770 0
772 773 774 0
-769 -58 772 0
-769 -59 773 0
-769 -60 774 0
-770 -58 773 0
-770 -59 774 0
-770 -60 772 0
-771 -58 774 0
-771 -59 772 0
-771 -60 773 0
775 776 777 0
-772 -70 775 0
-772 -71 776 0
-772 -72 777 0
-773 -70 776 0
-773 -71 777 0
-773 -72 775 0
-774 -70 777 0
-774 -71 775 0
-774 -72 776 0
778 779 780 0
-775 -115 778 0
-775 -116 779 0
-775 -117 780 0
-776 -115 779 0
-776 -116 780 0
-776 -117 778 0
-777 -115 780 0
-777 -116 778 0
-777 -117 779 0
781 782 783 0
-4 -16 781 0
-4 -17 782 0
-4 -18 783 0
-5 -16 782 0
-5 -17 783 0
-5 -18 781 0
-6 -16 783 0
-6 -17 781 0
-6 -18 782 0
784 785 786 0
-781 -19 784 0
-781 -20 785 0
-781 -21 786 0
-782 -19 785 0
-782 -20 786 0
-782 -21 784 0
-783 -19 786 0
-783 -20 784 0
-783 -21 785 0
787 788 789 0
-784 -61 787 0
-784 -62 788 0
-784 -63 789 0
-785 -61 788 0
-785 -62 789 0
-785 -63 787 0
-786 -61 789 0
-786 -62 787 0
-786 -63 788 0
790 791 792 0
-787 -64 790 0
-787 -65 791 0
-787 -66 792 0
-788 -64 791 0
-788 -65 792 0
-788 -66 790 0
-789 -64 792 0
-789 -65 790 0
-789 -66 791 0
793 794 795 0
-790 -118 793 0
-790 -119 794 0
-790 -120 795 0
-791 -118 794 0
-791 -119 795 0
-791 -120 793 0
-792 -118 795 0
-792 -119 793 0
-792 -120 794 0
796 797 798 0
-4 -16 796 0
-4 -17 797 0
-4 -18 798 0
-5 -16 797 0
-5 -17 798 0
-5 -18 796 0
-6 -16 798 0
-6 -17 796 0
-6 -18 797 0
799 800 801 0
-796 -22 799 0
-796 -23 800 0
-796 -24 801 0
-797 -22 800 0
-797 -23 801 0
-797 -24 799 0
-798 -22 801 0
-798 -23 799 0
-798 -24 800 0
802 803 804 0
-799 -61 802 0
-799 -62 803 0
-799 -63 804 0
-800 -61 803 0
-800 -62 804 0
-800 -63 802 0
-801 -61 804 0
-801 -62 802 0
-801 -63 803 0
805 806 807 0
-802 -67 805 0
-802 -68 806 0
-802 -69 807 0
-803 -67 806 0
-803 -68 807 0
-803 -69 805 0
-804 -67 807 0
-804 -68 805 0
-804 -69 806 0
808 809 810 0
-805 -121 808 0
-805 -122 809 0
-805 -123 810 0
-806 -121 809 0
-806 -122 810 0
-806 -123 808 0
-807 -121 810 0
-807 -122 808 0
-807 -123 809 0
811 812 813 0
-4 -16 811 0
-4 -17 812 0
-4 -18 813 0
-5 -16 812 0
-5 -17 813 0
-5 -18 811 0
-6 -16 813 0
-6 -17 811 0
-6 -18 812 0
814 815 816 0
-811 -25 814 0
-811 -26 815 0
-811 -27 816 0
-812 -25 815 0
-812 -26 816 0
-812 -27 814 0
-813 -25 816 0
-813 -26 814 0
-813 -27 815 0
817 818 819 0
-814 -61 817 0
-814 -62 818 0
-814 -63 819 0
-815 -61 818 0
-815 -62 819 0
-815 -63 817 0
-816 -61 819 0
-816 -62 817 0
-816 -63 818 0
820 821 822 0
-817 -70 820 0
-817 -71 821 0
-817 -72 822 0
-818 -70 821 0
-818 -71 822 0
-818 -72 820 0
-819 -70 822 0
-819 -71 820 0
-819 -72 821 0
823 824 825 0
-820 -124 823 0
-820 -125 824 0
-820 -126 825 0
-821 -124 824 0
-821 -125 825 0
-821 -126 823 0
-822 -124 825 0
-822 -125 823 0
-822 -126 824 0
826 827 828 0
-4 -19 826 0
-4 -20 827 0
-4 -21 828 0
-5 -19 827 0
-5 -20 828 0
-5 -21 826 0
-6 -19 828 0
-6 -20 826 0
-6 -21 827 0
829 830 831 0
-826 -22 829 0
-826 -23 830 0
-826 -24 831 0
-827 -22 830 0
-827 -23 831 0
-827 -24 829 0
-828 -22 831 0
-828 -23 829 0
-828 -24 830 0
832 833 834 0
-829 -64 832 0
-829 -65 833 0
-829 -66 834 0
-830 -64 833 0
-830 -65 834 0
-830 -66 832 0
-831 -64 834 0
-831 -65 832 0
-831 -66 833 0
835 836 837 0
-832 -67 835 0
-832 -68 836 0
-832 -69 837 0
-833 -67 836 0
-833 -68 837 0
-833 -69 835 0
-834 -67 837 0
-834 -68 835 0
-834 -69 836 0
838 839 840 0
-835 -127 838 0
-835 -128 839 0
-835 -129 840 0
-836 -127 839 0
-836 -128 840 0
-836 -129 838 0
-837 -127 840 0
-837 -128 838 0
-837 -129 839 0
841 842 843 0
-4 -19 841 0
-4 -20 842 0
-4 -21 843 0
-5 -19 842 0
-5 -20 843 0
-5 -21 841 0
-6 -19 843 0
-6 -20 841 0
-6 -21 842 0
844 845 846 0
-841 -25 844 0
-841 -26 845 0
-841 -27 846 0
-842 -25 845 0
-842 -26 846 0
-842 -27 844 0
-843 -25 846 0
-843 -26 844 0
-843 -27 845 0
847 848 849 0
-844 -64 847 0
-844 -65 848 0
-844 -66 849 0
-845 -64 848 0
-845 -65 849 0
-845 -66 847 0
-846 -64 849 0
-846 -65 847 0
-846 -66 848 0
850 851 852 0
-847 -70 850 0
-847 -71 851 0
-847 -72 852 0
-848 -70 851 0
-848 -71 852 0
-848 -72 850 0
-849 -70 852 0
-849 -71 850 0
-849 -72 851 0
853 854 855 0
-850 -130 853 0
-850 -131 854 0
-850 -132 855 0
-851 -130 854 0
-851 -131 855 0
-851 -132 853 0
-852 -130 855 0
-852 -131 853 0
-852 -132 854 0
856 857 858 0
-4 -22 856 0
-4 -23 857 0
-4 -24 858 0
-5 -22 857 0
-5 -23 858 0
-5 -24 856 0
-6 -22 858 0
-6 -23 856 0
-6 -24 857 0
859 860 861 0
-856 -25 859 0
-856 -26 860 0
-856 -27 861 0
-857 -25 860 0
-857 -26 861 0
-857 -27 859 0
-858 -25 861 0
-858 -26 859 0
-858 -27 860 0
862 863 864 0
-859 -67 862 0
-859 -68 863 0
-859 -69 864 0
-860 -67 863 0
-860 -68 864 0
-860 -69 862 0
-861 -67 864 0
-861 -68 862 0
-861 -69 863 0
865 866 867 0
-862 -70 865 0
-862 -71 866 0
-862 -72 867 0
-863 -70 866 0
-863 -71 867 0
-863 -72 865 0
-864 -70 867 0
-864 -71 865 0
-864 -72 866 0
868 869 870 0
-865 -133 868 0
-865 -134 869 0
-865 -135 870 0
-866 -133 869 0
-866 -134 870 0
-866 -135 868 0
-867 -133 870 0
-867 -134 868 0
-867 -135 869 0
871 872 873 0
-7 -10 871 0
-7 -11 872 0
-7 -12 873 0
-8 -10 872 0
-8 -11 873 0
-8 -12 871 0
-9 -10 873 0
-9 -11 871 0
-9 -12 872 0
874 875 876 0
-871 -13 874 0
-871 -14 875 0
-871 -15 876 0
-872 -13 875 0
-872 -14 876 0
-872 -15 874 0
-873 -13 876 0
-873 -14 874 0
-873 -15 875 0
877 878 879 0
-874 -73 877 0
-874 -74 878 0
-874 -75 879 0
-875 -73 878 0
-875 -74 879 0
-875 -75 877 0
-876 -73 879 0
-876 -74 877 0
-876 -75 878 0
880 881 882 0
-877 -76 880 0
-877 -77 881 0
-877 -78 882 0
-878 -76 881 0
-878 -77 882 0
-878 -78 880 0
-879 -76 882 0
-879 -77 880 0
-879 -78 881 0
883 884 885 0
-880 -91 883 0
-880 -92 884 0
-880 -93 885 0
-881 -91 884 0
-881 -92 885 0
-881 -93 883 0
-882 -91 885 0
-882 -92 883 0
-882 -93 884 0
886 887 888 0
-7 -10 886 0
-7 -11 887 0
-7 -12 888 0
-8 -10 887 0
-8 -11 888 0
-8 -12 886 0
-9 -10 888 0
-9 -11 886 0
-9 -12 887 0
889 890 891 0
-886 -16 889 0
-886 -17 890 0
-886 -18 891 0
-887 -16 890 0
-887 -17 891 0
-887 -18 889 0
-888 -16 891 0
-888 -17 889 0
-888 -18 890 0
892 893 894 0
-889 -73 892 0
-889 -74 893 0
-889 -75 894 0
-890 -73 893 0
-890 -74 894 0
-890 -75 892 0
-891 -73 894 0
-891 -74 892 0
-891 -75 893 0
895 896 897 0
-892 -79 895 0
-892 -80 896 0
-892 -81 897 0
-893 -79 896 0
-893 -80 897 0
-893 -81 895 0
-894 -79 897 0
-894 -80 895 0
-894 -81 896 0
898 899 900 0
-895 -94 898 0
-895 -95 899 0
-895 -96 900 0
-896 -94 899 0
-896 -95 900 0
-896 -96 898 0
-897 -94 900 0
-897 -95 898 0
-897 -96 899 0
901 902 903 0
-7 -10 901 0
-7 -11 902 0
-7 -12 903 0
-8 -10 902 0
-8 -11 903 0
-8 -12 901 0
-9 -10 903 0
-9 -11 901 0
-9 -12 902 0
904 905 906 0
-901 -19 904 0
-901 -20 905 0
-901 -21 906 0
-902 -19 905 0
-902 -20 906 0
-902 -21 904 0
-903 -19 906 0
-903 -20 904 0
-903 -21 905 0
907 908 909 0
-904 -73 907 0
-904 -74 908 0
-904 -75 909 0
-905 -73 908 0
-905 -74 909 0
-905 -75 907 0
-906 -73 909 0
-906 -74 907 0
-906 -75 908 0
910 911 912 0
-907 -82 910 0
-907 -83 911 0
-907 -84 912 0
-908 -82 911 0
-908 -83 912 0
-908 -84 910 0
-909 -82 912 0
-909 -83 910 0
-909 -84 911 0
913 914 915 0
-910 -97 913 0
-910 -98 914 0
-910 -99 915 0
-911 -97 914 0
-911 -98 915 0
-911 -99 913 0
-912 -97 915 0
-912 -98 913 0
-912 -99 914 0
916 917 918 0
-7 -10 916 0
-7 -11 917 0
-7 -12 918 0
-8 -10 917 0
-8 -11 918 0
-8 -12 916 0
-9 -10 918 0
-9 -11 916 0
-9 -12 917 0
919 920 921 0
-916 -22 919 0
-916 -23 920 0
-916 -24 921 0
-917 -22 920 0
-917 -23 921 0
-917 -24 919 0
-918 -22 921 0
-918 -23 919 0
-918 -24 920 0
922 923 924 0
-919 -73 922 0
-919 -74 923 0
-919 -75 924 0
-920 -73 923 0
-920 -74 924 0
-920 -75 922 0
-921 -73 924 0
-921 -74 922 0
-921 -75 923 0
925 926 927 0
-922 -85 925 0
-922 -86 926 0
-922 -87 927 0
-923 -85 926 0
-923 -86 927 0
-923 -87 925 0
-924 -85 927 0
-924 -86 925 0
-924 -87 926 0
928 929 930 0
-925 -100 928 0
-925 -101 929 0
-925 -102 930 0
-926 -100 929 0
-926 -101 930 0
-926 -102 928 0
-927 -100 930 0
-927 -101 928 0
-927 -102 929 0
931 932 933 0
-7 -10 931 0
-7 -11 932 0
-7 -12 933 0
-8 -10 932 0
-8 -11 933 0
-8 -12 931 0
-9 -10 933 0
-9 -11 931 0
-9 -12 932 0
934 935 936 0
-931 -25 934 0
-931 -26 935 0
-931 -27 936 0
-932 -25 935 0
-932 -26 936 0
-932 -27 934 0
-933 -25 936 0
-933 -26 934 0
-933 -27 935 0
937 938 939 0
-934 -73 937 0
-934 -74 938 0
-934 -75 939 0
-935 -73 938 0
-935 -74 939 0
-935 -75 937 0
-936 -73 939 0
-936 -74 937 0
-936 -75 938 0
940 941 942 0
-937 -88 940 0
-937 -89 941 0
-937 -90 942 0
-938 -88 941 0
-938 -89 942 0
-938 -90 940 0
-939 -88 942 0
-939 -89 940 0
-939 -90 941 0
943 944 945 0
-940 -103 943 0
-940 -104 944 0
-940 -105 945 0
-941 -103 944 0
-941 -104 945 0
-941 -105 943 0
-942 -103 945 0
-942 -104 943 0
-942 -105 944 0
946 947 948 0
-7 -13 946 0
-7 -14 947 0
-7 -15 948 0
-8 -13 947 0
-8 -14 948 0
-8 -15 946 0
-9 -13 948 0
-9 -14 946 0
-9 -15 947 0
949 950 951 0
-946 -16 949 0
-946 -17 950 0
-946 -18 951 0
-947 -16 950 0
-947 -17 951 0
-947 -18 949 0
-948 -16 951 0
-948 -17 949 0
-948 -18 950 0
952 953 954 0
-949 -76 952 0
-949 -77 953 0
-949 -78 954 0
-950 -76 953 0
-950 -77 954 0
-950 -78 952 0
-951 -76 954 0
-951 -77 952 0
-951 -78 953 0
955 956 957 0
-952 -79 955 0
-952 -80 956 0
-952 -81 957 0
-953 -79 956 0
-953 -80 957 0
-953 -81 955 0
-954 -79 957 0
-954 -80 955 0
-954 -81 956 0
958 959 960 0
-955 -106 958 0
-955 -107 959 0
-955 -108 960 0
-956 -106 959 0
-956 -107 960 0
-956 -108 958 0
-957 -106 960 0
-957 -107 958 0
-957 -108 959 0
961 962 963 0
-7 -13 961 0
-7 -14 962 0
-7 -15 963 0
-8 -13 962 0
-8 -14 963 0
-8 -15 961 0
-9 -13 963 0
-9 -14 961 0
-9 -15 962 0
964 965 966 0
-961 -19 964 0
-961 -20 965 0
-961 -21 966 0
-962 -19 965 0
-962 -20 966 0
-962 -21 964 0
-963 -19 966 0
-963 -20 964 0
-963 -21 965 0
967 968 969 0
-964 -76 967 0
-964 -77 968 0
-964 -78 969 0
-965 -76 968 0
-965 -77 969 0
-965 -78 967 0
-966 -76 969 0
-966 -77 967 0
-966 -78 968 0
970 971 972 0
-967 -82 970 0
-967 -83 971 0
-967 -84 972 0
-968 -82 971 0
-968 -83 972 0
-968 -84 970 0
-969 -82 972 0
-969 -83 970 0
-969 -84 971 0
973 974 975 0
-970 -109 973 0
-970 -110 974 0
-970 -111 975 0
-971 -109 974 0
-971 -110 975 0
-971 -111 973 0
-972 -109 975 0
-972 -110 973 0
-972 -111 974 0
976 977 978 0
-7 -13 976 0
-7 -14 977 0
-7 -15 978 0
-8 -13 977 0
-8 -14 978 0
-8 -15 976 0
-9 -13 978 0
-9 -14 976 0
-9 -15 977 0
979 980 981 0
-976 -22 979 0
-976 -23 980 0
-976 -24 981 0
-977 -22 980 0
-977 -23 981 0
-977 -24 979 0
-978 -22 981 0
-978 -23 979 0
-978 -24 980 0
982 983 984 0
-979 -76 982 0
-979 -77 983 0
-979 -78 984 0
-980 -76 983 0
-980 -77 984 0
-980 -78 982 0
-981 -76 984 0
-981 -77 982 0
-981 -78 983 0
985 986 987 0
-982 -85 985 0
-982 -86 986 0
-982 -87 987 0
-983 -85 986 0
-983 -86 987 0
-983 -87 985 0
-984 -85 987 0
-984 -86 985 0
-984 -87 986 0
988 989 990 0
-985 -112 988 0
-985 -113 989 0
-985 -114 990 0
-986 -112 989 0
-986 -113 990 0
-986 -114 988 0
-987 -112 990 0
-987 -113 988 0
-987 -114 989 0
991 992 993 0
-7 -13 991 0
-7 -14 992 0
-7 -15 993 0
-8 -13 992 0
-8 -14 993 0
-8 -15 991 0
-9 -13 993 0
-9 -14 991 0
-9 -15 992 0
994 995 996 0
-991 -25 994 0
-991 -26 995 0
-991 -27 996 0
-992 -25 995 0
-992 -26 996 0
-992 -27 994 0
-993 -25 996 0
-993 -26 994 0
-993 -27 995 0
997 998 999 0
-994 -76 997 0
-994 -77 998 0
-994 -78 999 0
-995 -76 998 0
-995 -77 999 0
-995 -78 997 0
-996 -76 999 0
-996 -77 997 0
-996 -78 998 0
1000 1001 1002 0
-997 -88 1000 0
-997 -89 1001 0
-997 -90 1002 0
-998 -88 1001 0
-998 -89 1002 0
-998 -90 1000 0
-999 -88 1002 0
-999 -89 1000 0
-999 -90 1001 0
1003 1004 1005 0
-1000 -115 1003 0
-1000 -116 1004 0
-1000 -117 1005 0
-1001 -115 1004 0
-1001 -116 1005 0
-1001 -117 1003 0
-1002 -115 1005 0
-1002 -116 1003 0
-1002 -117 1004 0
1006 1007 1008 0
-7 -16 1006 0
-7 -17 1007 0
-7 -18 1008 0
-8 -16 1007 0
-8 -17 1008 0
-8 -18 1006 0
-9 -16 1008 0
-9 -17 1006 0
-9 -18 1007 0
1009 1010 1011 0
-1006 -19 1009 0
-1006 -20 1010 0
-1006 -21 1011 0
-1007 -19 1010 0
-1007 -20 1011 0
-1007 -21 1009 0
-1008 -19 1011 0
-1008 -20 1009 0
-1008 -21 1010 0
1012 1013 1014 0
-1009 -79 1012 0
-1009 -80 1013 0
-1009 -81 1014 0
-1010 -79 1013 0
-1010 -80 1014 0
-1010 -81 1012 0
-1011 -79 1014 0
-1011 -80 1012 0
-1011 -81 1013 0
1015 1016 1017 0
-1012 -82 1015 0
-1012 -83 1016 0
-1012 -84 1017 0
-1013 -82 1016 0
-1013 -83 1017 0
-1013 -84 1015 0
-1014 -82 1017 0
-1014 -83 1015 0
-1014 -84 1016 0
1018 1019 1020 0
-1015 -118 1018 0
-1015 -119 1019 0
-1015 -120 1020 0
-1016 -118 1019 0
-1016 -119 1020 0
-1016 -120 1018 0
-1017 -118 1020 0
-1017 -119 1018 0
-1017 -120 1019 0
1021 1022 1023 0
-7 -16 1021 0
-7 -17 1022 0
-7 -18 1023 0
-8 -16 1022 0
-8 -17 1023 0
-8 -18 1021 0
-9 -16 1023 0
-9 -17 1021 0
-9 -18 1022 0
1024 1025 1026 0
-1021 -22 1024 0
-1021 -23 1025 0
-1021 -24 1026 0
-1022 -22 1025 0
-1022 -23 1026 0
-1022 -24 1024 0
-1023 -22 1026 0
-1023 -23 1024 0
-1023 -24 1025 0
1027 1028 1029 0
-1024 -79 1027 0
-1024 -80 1028 0
-1024 -81 1029 0
-1025 -79 1028 0
-1025 -80 1029 0
-1025 -81 1027 0
-1026 -79 1029 0
-1026 -80 1027 0
-1026 -81 1028 0
1030 1031 1032 0
-1027 -85 1030 0
-1027 -86 1031 0
-1027 -87 1032 0
-1028 -85 1031 0
-1028 -86 1032 0
-1028 -87 1030 0
-1029 -85 1032 0
-1029 -86 1030 0
-1029 -87 1031 0
1033 1034 1035 0
-1030 -121 1033 0
-1030 -122 1034 0
-1030 -123 1035 0
-1031 -121 1034 0
-1031 -122 1035 0
-1031 -123 1033 0
-1032 -121 1035 0
-1032 -122 1033 0
-1032 -123 1034 0
1036 1037 1038 0
-7 -16 1036 0
-7 -17 1037 0
-7 -18 1038 0
-8 -16 1037 0
-8 -17 1038 0
-8 -18 1036 0
-9 -16 1038 0
-9 -17 1036 0
-9 -18 1037 0
1039 1040 1041 0
-1036 -25 1039 0
-1036 -26 1040 0
-1036 -27 1041 0
-1037 -25 1040 0
-1037 -26 1041 0
-1037 -27 1039 0
-1038 -25 1041 0
-1038 -26 1039 0
-1038 -27 1040 0
1042 1043 1044 0
-1039 -79 1042 0
-1039 -80 1043 0
-1039 -81 1044 0
-1040 -79 1043 0
-1040 -80 1044 0
-1040 -81 1042 0
-1041 -79 1044 0
-1041 -80 1042 0
-1041 -81 1043 0
1045 1046 1047 0
-1042 -88 1045 0
-1042 -89 1046 0
-1042 -90 1047 0
-1043 -88 1046 0
-1043 -89 1047 0
-1043 -90 1045 0
-1044 -88 1047 0
-1044 -89 1045 0
-1044 -90 1046 0
1048 1049 1050 0
-1045 -124 1048 0
-1045 -125 1049 0
-1045 -126 1050 0
-1046 -124 1049 0
-1046 -125 1050 0
-1046 -126 1048 0
-1047 -124 1050 0
-1047 -125 1048 0
-1047 -126 1049 0
1051 1052 1053 0
-7 -19 1051 0
-7 -20 1052 0
-7 -21 1053 0
-8 -19 1052 0
-8 -20 1053 0
-8 -21 1051 0
-9 -19 1053 0
-9 -20 1051 0
-9 -21 1052 0
1054 1055 1056 0
-1051 -22 1054 0
-1051 -23 1055 0
-1051 -24 1056 0
-1052 -22 1055 0
-1052 -23 1056 0
-1052 -24 1054 0
-1053 -22 1056 0
-1053 -23 1054 0
-1053 -24 1055 0
1057 1058 1059 0
-1054 -82 1057 0
-1054 -83 1058 0
-1054 -84 1059 0
-1055 -82 1058 0
-1055 -83 1059 0
-1055 -84 1057 0
-1056 -82 1059 0
-1056 -83 1057 0
-1056 -84 1058 0
1060 1061 1062 0
-1057 -85 1060 0
-1057 -86 1061 0
-1057 -87 1062 0
-1058 -85 1061 0
-1058 -86 1062 0
-1058 -87 1060 0
-1059 -85 1062 0
-1059 -86 1060 0
-1059 -87 1061 0
1063 1064 1065 0
-1060 -127 1063 0
-1060 -128 1064 0
-1060 -129 1065 0
-1061 -127 1064 0
-1061 -128 1065 0
-1061 -129 1063 0
-1062 -127 1065 0
-1062 -128 1063 0
-1062 -129 1064 0
1066 1067 1068 0
-7 -19 1066 0
-7 -20 1067 0
-7 -21 1068 0
-8 -19 1067 0
-8 -20 1068 0
-8 -21 1066 0
-9 -19 1068 0
-9 -20 1066 0
-9 -21 1067 0
1069 1070 1071 0
-1066 -25 1069 0
-1066 -26 1070 0
-1066 -27 1071 0
-1067 -25 1070 0
-1067 -26 1071 0
-1067 -27 1069 0
-1068 -25 1071 0
-1068 -26 1069 0
-1068 -27 1070 0
1072 1073 1074 0
-1069 -82 1072 0
-1069 -83 1073 0
-1069 -84 1074 0
-1070 -82 1073 0
-1070 -83 1074 0
-1070 -84 1072 0
-1071 -82 1074 0
-1071 -83 1072 0
-1071 -84 1073 0
1075 1076 1077 0
-1072 -88 1075 0
-1072 -89 1076 0
-1072 -90 1077 0
-1073 -88 1076 0
-1073 -89 1077 0
-1073 -90 1075 0
-1074 -88 1077 0
-1074 -89 1075 0
-1074 -90 1076 0
1078 1079 1080 0
-1075 -130 1078 0
-1075 -131 1079 0
-1075 -132 1080 0
-1076 -130 1079 0
-1076 -131 1080 0
-1076 -132 1078 0
-1077 -130 1080 0
-1077 -131 1078 0
-1077 -132 1079 0
1081 1082 1083 0
-7 -22 1081 0
-7 -23 1082 0
-7 -24 1083 0
-8 -22 1082 0
-8 -23 1083 0
-8 -24 1081 0
-9 -22 1083 0
-9 -23 1081 0
-9 -24 1082 0
1084 1085 1086 0
-1081 -25 1084 0
-1081 -26 1085 0
-1081 -27 1086 0
-1082 -25 1085 0
-1082 -26 1086 0
-1082 -27 1084 0
-1083 -25 1086 0
-1083 -26 1084 0
-1083 -27 1085 0
1087 1088 1089 0
-1084 -85 1087 0
-1084 -86 1088 0
-1084 -87 1089 0
-1085 -85 1088 0
-1085 -86 1089 0
-1085 -87 1087 0
-1086 -85 1089 0
-1086 -86 1087 0
-1086 -87 1088 0
1090 1091 1092 0
-1087 -88 1090 0
-1087 -89 1091 0
-1087 -90 1092 0
-1088 -88 1091 0
-1088 -89 1092 0
-1088 -90 1090 0
-1089 -88 1092 0
-1089 -89 1090 0
-1089 -90 1091 0
1093 1094 1095 0
-1090 -133 1093 0
-1090 -134 1094 0
-1090 -135 1095 0
-1091 -133 1094 0
-1091 -134 1095 0
-1091 -135 1093 0
-1092 -133 1095 0
-1092 -134 1093 0
-1092 -135 1094 0
1096 1097 1098 0
-10 -13 1096 0
-10 -14 1097 0
-10 -15 1098 0
-11 -13 1097 0
-11 -14 1098 0
-11 -15 1096 0
-12 -13 1098 0
-12 -14 1096 0
-12 -15 1097 0
1099 1100 1101 0
-1096 -16 1099 0
-1096 -17 1100 0
-1096 -18 1101 0
-1097 -16 1100 0
-1097 -17 1101 0
-1097 -18 1099 0
-1098 -16 1101 0
-1098 -17 1099 0
-1098 -18 1100 0
1102 1103 1104 0
-1099 -91 1102 0
-1099 -92 1103 0
-1099 -93 1104 0
-1100 -91 1103 0
-1100 -92 1104 0
-1100 -93 1102 0
-1101 -91 1104 0
-1101 -92 1102 0
-1101 -93 1103 0
1105 1106 1107 0
-1102 -94 1105 0
-1102 -95 1106 0
-1102 -96 1107 0
-1103 -94 1106 0
-1103 -95 1107 0
-1103 -96 1105 0
-1104 -94 1107 0
-1104 -95 1105 0
-1104 -96 1106 0
1108 1109 1110 0
-1105 -106 1108 0
-1105 -107 1109 0
-1105 -108 1110 0
-1106 -106 1109 0
-1106 -107 1110 0
-1106 -108 1108 0
-1107 -106 1110 0
-1107 -107 1108 0
-1107 -108 1109 0
1111 1112 1113 0
-10 -13 1111 0
-10 -14 1112 0
-10 -15 1113 0
-11 -13 1112 0
-11 -14 1113 0
-11 -15 1111 0
-12 -13 1113 0
-12 -14 1111 0
-12 -15 1112 0
1114 1115 1116 0
-1111 -19 1114 0
-1111 -20 1115 0
-1111 -21 1116 0
-1112 -19 1115 0
-1112 -20 1116 0
-1112 -21 1114 0
-1113 -19 1116 0
-1113 -20 1114 0
-1113 -21 1115 0
1117 1118 1119 0
-1114 -91 1117 0
-1114 -92 1118 0
-1114 -93 1119 0
-1115 -91 1118 0
-1115 -92 1119 0
-1115 -93 1117 0
-1116 -91 1119 0
-1116 -92 1117 0
-1116 -93 1118 0
1120 1121 1122 0
-1117 -97 1120 0
-1117 -98 1121 0
-1117 -99 1122 0
-1118 -97 1121 0
-1118 -98 1122 0
-1118 -99 1120 0
-1119 -97 1122 0
-1119 -98 1120 0
-1119 -99 1121 0
1123 1124 1125 0
-1120 -109 1123 0
-1120 -110 1124 0
-1120 -111 1125 0
-1121 -109 1124 0
-1121 -110 1125 0
-1121 -111 1123 0
-1122 -109 1125 0
-1122 -110 1123 0
-1122 -111 1124 0
1126 1127 1128 0
-10 -13 1126 0
-10 -14 1127 0
-10 -15 1128 0
-11 -13 1127 0
-11 -14 1128 0
-11 -15 1126 0
-12 -13 1128 0
-12 -14 1126 0
-12 -15 1127 0
1129 1130 1131 0
-1126 -22 1129 0
-1126 -23 1130 0
-1126 -24 1131 0
-1127 -22 1130 0
-1127 -23 1131 0
-1127 -24 1129 0
-1128 -22 1131 0
-1128 -23 1129 0
-1128 -24 1130 0
1132 1133 1134 0
-1129 -91 1132 0
-1129 -92 1133 0
-1129 -93 1134 0
-1130 -91 1133 0
-1130 -92 1134 0
-1130 -93 1132 0
-1131 -91 1134 0
-1131 -92 1132 0
-1131 -93 1133 0
1135 1136 1137 0
-1132 -100 1135 0
-1132 -101 1136 0
-1132 -102 1137 0
-1133 -100 1136 0
-1133 -101 1137 0
-1133 -102 1135 0
-1134 -100 1137 0
-1134 -101 1135 0
-1134 -102 1136 0
1138 1139 1140 0
-1135 -112 1138 0
-1135 -113 1139 0
-1135 -114 1140 0
-1136 -112 1139 0
-1136 -113 1140 0
-1136 -114 1138 0
-1137 -112 1140 0
-1137 -113 1138 0
-1137 -114 1139 0
1141 1142 1143 0
-10 -13 1141 0
-10 -14 1142 0
-10 -15 1143 0
-11 -13 1142 0
-11 -14 1143 0
-11 -15 1141 0
-12 -13 1143 0
-12 -14 1141 0
-12 -15 1142 0
1144 1145 1146 0
-1141 -25 1144 0
-1141 -26 1145 0
-1141 -27 1146 0
-1142 -25 1145 0
-1142 -26 1146 0
-1142 -27 1144 0
-1143 -25 1146 0
-1143 -26 1144 0
-1143 -27 1145 0
1147 1148 1149 0
-1144 -91 1147 0
-1144 -92 1148 0
-1144 -93 1149 0
-1145 -91 1148 0
-1145 -92 1149 0
-1145 -93 1147 0
-1146 -91 1149 0
-1146 -92 1147 0
-1146 -93 1148 0
1150 1151 1152 0
-1147 -103 1150 0
-1147 -104 1151 0
-1147 -105 1152 0
-1148 -103 1151 0
-1148 -104 1152 0
-1148 -105 1150 0
-1149 -103 1152 0
-1149 -104 1150 0
-1149 -105 1151 0
1153 1154 1155 0
-1150 -115 1153 0
-1150 -116 1154 0
-1150 -117 1155 0
-1151 -115 1154 0
-1151 -116 1155 0
-1151 -117 1153 0
-1152 -115 1155 0
-1152 -116 1153 0
-1152 -117 1154 0
1156 1157 1158 0
-10 -16 1156 0
-10 -17 1157 0
-10 -18 1158 0
-11 -16 1157 0
-11 -17 1158 0
-11 -18 1156 0
-12 -16 1158 0
-12 -17 1156 0
-12 -18 1157 0
1159 1160 1161 0
-1156 -19 1159 0
-1156 -20 1160 0
-1156 -21 1161 0
-1157 -19 1160 0
-1157 -20 1161 0
-1157 -21 1159 0
-1158 -19 1161 0
-1158 -20 1159 0
-1158 -21 1160 0
1162 1163 1164 0
-1159 -94 1162 0
-1159 -95 1163 0
-1159 -96 1164 0
-1160 -94 1163 0
-1160 -95 1164 0
-1160 -96 1162 0
-1161 -94 1164 0
-1161 -95 1162 0
-1161 -96 1163 0
1165 1166 1167 0
-1162 -97 1165 0
-1162 -98 1166 0
-1162 -99 1167 0
-1163 -97 1166 0
-1163 -98 1167 0
-1163 -99 1165 0
-1164 -97 1167 0
-1164 -98 1165 0
-1164 -99 1166 0
1168 1169 1170 0
-1165 -118 1168 0
-1165 -119 1169 0
-1165 -120 1170 0
-1166 -118 1169 0
-1166 -119 1170 0
-1166 -120 1168 0
-1167 -118 1170 0
-1167 -119 1168 0
-1167 -120 1169 0
1171 1172 1173 0
-10 -16 1171 0
-10 -17 1172 0
-10 -18 1173 0
-11 -16 1172 0
-11 -17 1173 0
-11 -18 1171 0
-12 -16 1173 0
-12 -17 1171 0
-12 -18 1172 0
1174 1175 1176 0
-1171 -22 1174 0
-1171 -23 1175 0
-1171 -24 1176 0
-1172 -22 1175 0
-1172 -23 1176 0
-1172 -24 1174 0
-1173 -22 1176 0
-1173 -23 1174 0
-1173 -24 1175 0
1177 1178 1179 0
-1174 -94 1177 0
-1174 -95 1178 0
-1174 -96 1179 0
-1175 -94 1178 0
-1175 -95 1179 0
-1175 -96 1177 0
-1176 -94 1179 0
-1176 -95 1177 0
-1176 -96 1178 0
1180 1181 1182 0
-1177 -100 1180 0
-1177 -101 1181 0
-1177 -102 1182 0
-1178 -100 1181 0
-1178 -101 1182 0
-1178 -102 1180 0
-1179 -100 1182 0
-1179 -101 1180 0
-1179 -102 1181 0
1183 1184 1185 0
-1180 -121 1183 0
-1180 -122 1184 0
-1180 -123 1185 0
-1181 -121 1184 0
-1181 -122 1185 0
-1181 -123 1183 0
-1182 -121 1185 0
-1182 -122 1183 0
-1182 -123 1184 0
1186 1187 1188 0
-10 -16 1186 0
-10 -17 1187 0
-10 -18 1188 0
-11 -16 1187 0
-11 -17 1188 0
-11 -18 1186 0
-12 -16 1188 0
-12 -17 1186 0
-12 -18 1187 0
1189 1190 1191 0
-1186 -25 1189 0
-1186 -26 1190 0
-1186 -27 1191 0
-1187 -25 1190 0
-1187 -26 1191 0
-1187 -27 1189 0
-1188 -25 1191 0
-1188 -26 1189 0
-1188 -27 1190 0
1192 1193 1194 0
-1189 -94 1192 0
-1189 -95 1193 0
-1189 -96 1194 0
-1190 -94 1193 0
-1190 -95 1194 0
-1190 -96 1192 0
-1191 -94 1194 0
-1191 -95 1192 0
-1191 -96 1193 0
1195 1196 1197 0
-1192 -103 1195 0
-1192 -104 1196 0
-1192 -105 1197 0
-1193 -103 1196 0
-1193 -104 1197 0
-1193 -105 1195 0
-1194 -103 1197 0
-1194 -104 1195 0
-1194 -105 1196 0
1198 1199 1200 0
-1195 -124 1198 0
-1195 -125 1199 0
-1195 -126 1200 0
-1196 -124 1199 0
-1196 -125 1200 0
-1196 -126 1198 0
-1197 -124 1200 0
-1197 -125 1198 0
-1197 -126 1199 0
1201 1202 1203 0
-10 -19 1201 0
-10 -20 1202 0
-10 -21 1203 0
-11 -19 1202 0
-11 -20 1203 0
-11 -21 1201 0
-12 -19 1203 0
-12 -20 1201 0
-12 -21 1202 0
1204 1205 1206 0
-1201 -22 1204 0
-1201 -23 1205 0
-1201 -24 1206 0
-1202 -22 1205 0
-1202 -23 1206 0
-1202 -24 1204 0
-1203 -22 1206 0
-1203 -23 1204 0
-1203 -24 1205 0
1207 1208 1209 0
-1204 -97 1207 0
-1204 -98 1208 0
-1204 -99 1209 0
-1205 -97 1208 0
-1205 -98 1209 0
-1205 -99 1207 0
-1206 -97 1209 0
-1206 -98 1207 0
-1206 -99 1208 0
1210 1211 1212 0
-1207 -100 1210 0
-1207 -101 1211 0
-1207 -102 1212 0
-1208 -100 1211 0
-1208 -101 1212 0
-1208 -102 1210 0
-1209 -100 1212 0
-1209 -101 1210 0
-1209 -102 1211 0
1213 1214 1215 0
-1210 -127 1213 0
-1210 -128 1214 0
-1210 -129 1215 0
-1211 -127 1214 0
-1211 -128 1215 0
-1211 -129 1213 0
-1212 -127 1215 0
-1212 -128 1213 0
-1212 -129 1214 0
1216 1217 1218 0
-10 -19 1216 0
-10 -20 1217 0
-10 -21 1218 0
-11 -19 1217 0
-11 -20 1218 0
-11 -21 1216 0
-12 -19 1218 0
-12 -20 1216 0
-12 -21 1217 0
1219 1220 1221 0
-1216 -25 1219 0
-1216 -26 1220 0
-1216 -27 1221 0
-1217 -25 1220 0
-1217 -26 1221 0
-1217 -27 1219 0
-1218 -25 1221 0
-1218 -26 1219 0
-1218 -27 1220 0
1222 1223 1224 0
-1219 -97 1222 0
-1219 -98 1223 0
-1219 -99 1224 0
-1220 -97 1223 0
-1220 -98 1224 0
-1220 -99 1222 0
-1221 -97 1224 0
-1221 -98 1222 0
-1221 -99 1223 0
1225 1226 1227 0
-1222 -103 1225 0
-1222 -104 1226 0
-1222 -105 1227 0
-1223 -103 1226 0
-1223 -104 1227 0
-1223 -105 1225 0
-1224 -103 1227 0
-1224 -104 1225 0
-1224 -105 1226 0
1228 1229 1230 0
-1225 -130 1228 0
-1225 -131 1229 0
-1225 -132 1230 0
-1226 -130 1229 0
-1226 -131 1230 0
-1226 -132 1228 0
-1227 -130 1230 0
-1227 -131 1228 0
-1227 -132 1229 0
1231 1232 1233 0
-10 -22 1231 0
-10 -23 1232 0
-10 -24 1233 0
-11 -22 1232 0
-11 -23 1233 0
-11 -24 1231 0
-12 -22 1233 0
-12 -23 1231 0
-12 -24 1232 0
1234 1235 1236 0
-1231 -25 1234 0
-1231 -26 1235 0
-1231 -27 1236 0
-1232 -25 1235 0
-1232 -26 1236 0
-1232 -27 1234 0
-1233 -25 1236 0
-1233 -26 1234 0
-1233 -27 1235 0
1237 1238 1239 0
-1234 -100 1237 0
-1234 -101 1238 0
-1234 -102 1239 0
-1235 -100 1238 0
-1235 -101 1239 0
-1235 -102 1237 0
-1236 -100 1239 0
-1236 -101 1237 0
-1236 -102 1238 0
1240 1241 1242 0
-1237 -103 1240 0
-1237 -104 1241 0
-1237 -105 1242 0
-1238 -103 1241 0
-1238 -104 1242 0
-1238 -105 1240 0
-1239 -103 1242 0
-1239 -104 1240 0
-1239 -105 1241 0
1243 1244 1245 0
-1240 -133 1243 0
-1240 -134 1244 0
-1240 -135 1245 0
-1241 -133 1244 0
-1241 -134 1245 0
-1241 -135 1243 0
-1242 -133 1245 0
-1242 -134 1243 0
-1242 -135 1244 0
1246 1247 1248 0
-13 -16 1246 0
-13 -17 1247 0
-13 -18 1248 0
-14 -16 1247 0
-14 -17 1248 0
-14 -18 1246 0
-15 -16 1248 0
-15 -17 1246 0
-15 -18 1247 0
1249 1250 1251 0
-1246 -19 1249 0
-1246 -20 1250 0
-1246 -21 1251 0
-1247 -19 1250 0
-1247 -20 1251 0
-1247 -21 1249 0
-1248 -19 1251 0
-1248 -20 1249 0
-1248 -21 1250 0
1252 1253 1254 0
-1249 -106 1252 0
-1249 -107 1253 0
-1249 -108 1254 0
-1250 -106 1253 0
-1250 -107 1254 0
-1250 -108 1252 0
-1251 -106 1254 0
-1251 -107 1252 0
-1251 -108 1253 0
1255 1256 1257 0
-1252 -109 1255 0
-1252 -110 1256 0
-1252 -111 1257 0
-1253 -109 1256 0
-1253 -110 1257 0
-1253 -111 1255 0
-1254 -109 1257 0
-1254 -110 1255 0
-1254 -111 1256 0
1258 1259 1260 0
-1255 -118 1258 0
-1255 -119 1259 0
-1255 -120 1260 0
-1256 -118 1259 0
-1256 -119 1260 0
-1256 -120 1258 0
-1257 -118 1260 0
-1257 -119 1258 0
-1257 -120 1259 0
1261 1262 1263 0
-13 -16 1261 0
-13 -17 1262 0
-13 -18 1263 0
-14 -16 1262 0
-14 -17 1263 0
-14 -18 1261 0
-15 -16 1263 0
-15 -17 1261 0
-15 -18 1262 0
1264 1265 1266 0
-1261 -22 1264 0
-1261 -23 1265 0
-1261 -24 1266 0
-1262 -22 1265 0
-1262 -23 1266 0
-1262 -24 1264 0
-1263 -22 1266 0
-1263 -23 1264 0
-1263 -24 1265 0
1267 1268 1269 0
-1264 -106 1267 0
-1264 -107 1268 0
-1264 -108 1269 0
-1265 -106 1268 0
-1265 -107 1269 0
-1265 -108 1267 0
-1266 -106 1269 0
-1266 -107 1267 0
-1266 -108 1268 0
1270 1271 1272 0
-1267 -112 1270 0
-1267 -113 1271 0
-1267 -114 1272 0
-1268 -112 1271 0
-1268 -113 1272 0
-1268 -114 1270 0
-1269 -112 1272 0
-1269 -113 1270 0
-1269 -114 1271 0
1273 1274 1275 0
-1270 -121 1273 0
-1270 -122 1274 0
-1270 -123 1275 0
-1271 -121 1274 0
-1271 -122 1275 0
-1271 -123 1273 0
-1272 -121 1275 0
-1272 -122 1273 0
-1272 -123 1274 0
1276 1277 1278 0
-13 -16 1276 0
-13 -17 1277 0
-13 -18 1278 0
-14 -16 1277 0
-14 -17 1278 0
-14 -18 1276 0
-15 -16 1278 0
-15 -17 1276 0
-15 -18 1277 0
1279 1280 1281 0
-1276 -25 1279 0
-1276 -26 1280 0
-1276 -27 1281 0
-1277 -25 1280 0
-1277 -26 1281 0
-1277 -27 1279 0
-1278 -25 1281 0
-1278 -26 1279 0
-1278 -27 1280 0
1282 1283 1284 0
-1279 -106 1282 0
-1279 -107 1283 0
-1279 -108 1284 0
-1280 -106 1283 0
-1280 -107 1284 0
-1280 -108 1282 0
-1281 -106 1284 0
-1281 -107 1282 0
-1281 -108 1283 0
1285 1286 1287 0
-1282 -115 1285 0
-1282 -116 1286 0
-1282 -117 1287 0
-1283 -115 1286 0
-1283 -116 1287 0
-1283 -117 1285 0
-1284 -115 1287 0
-1284 -116 1285 0
-1284 -117 1286 0
1288 1289 1290 0
-1285 -124 1288 0
-1285 -125 1289 0
-1285 -126 1290 0
-1286 -124 1289 0
-1286 -125 1290 0
-1286 -126 1288 0
-1287 -124 1290 0
-1287 -125 1288 0
-1287 -126 1289 0
1291 1292 1293 0
-13 -19 1291 0
-13 -20 1292 0
-13 -21 1293 0
-14 -19 1292 0
-14 -20 1293 0
-14 -21 1291 0
-15 -19 1293 0
-15 -20 1291 0
-15 -21 1292 0
1294 1295 1296 0
-1291 -22 1294 0
-1291 -23 1295 0
-1291 -24 1296 0
-1292 -22 1295 0
-1292 -23 1296 0
-1292 -24 1294 0
-1293 -22 1296 0
-1293 -23 1294 0
-1293 -24 1295 0
1297 1298 1299 0
-1294 -109 1297 0
-1294 -110 1298 0
-1294 -111 1299 0
-1295 -109 1298 0
-1295 -110 1299 0
-1295 -111 1297 0
-1296 -109 1299 0
-1296 -110 1297 0
-1296 -111 1298 0
1300 1301 1302 0
-1297 -112 1300 0
-1297 -113 1301 0
-1297 -114 1302 0
-1298 -112 1301 0
-1298 -113 1302 0
-1298 -114 1300 0
-1299 -112 1302 0
-1299 -113 1300 0
-1299 -114 1301 0
1303 1304 1305 0
-1300 -127 1303 0
-1300 -128 1304 0
-1300 -129 1305 0
-1301 -127 1304 0
-1301 -128 1305 0
-1301 -129 1303 0
-1302 -127 1305 0
-1302 -128 1303 0
-1302 -129 1304 0
1306 1307 1308 0
-13 -19 1306 0
-13 -20 1307 0
-13 -21 1308 0
-14 -19 1307 0
-14 -20 1308 0
-14 -21 1306 0
-15 -19 1308 0
-15 -20 1306 0
-15 -21 1307 0
1309 1310 1311 0
-1306 -25 1309 0
-1306 -26 1310 0
-1306 -27 1311 0
-1307 -25 1310 0
-1307 -26 1311 0
-1307 -27 1309 0
-1308 -25 1311 0
-1308 -26 1309 0
-1308 -27 1310 0
1312 1313 1314 0
-1309 -109 1312 0
-1309 -110 1313 0
-1309 -111 1314 0
-1310 -109 1313 0
-1310 -110 1314 0
-1310 -111 1312 0
-1311 -109 1314 0
-1311 -110 1312 0
-1311 -111 1313 0
1315 1316 1317 0
-1312 -115 1315 0
-1312 -116 1316 0
-1312 -117 1317 0
-1313 -115 1316 0
-1313 -116 1317 0
-1313 -117 1315 0
-1314 -115 1317 0
-1314 -116 1315 0
-1314 -117 1316 0
1318 1319 1320 0
-1315 -130 1318 0
-1315 -131 1319 0
-1315 -132 1320 0
-1316 -130 1319 0
-1316 -131 1320 0
-1316 -132 1318 0
-1317 -130 1320 0
-1317 -131 1318 0
-1317 -132 1319 0
1321 1322 1323 0
-13 -22 1321 0
-13 -23 1322 0
-13 -24 1323 0
-14 -22 1322 0
-14 -23 1323 0
-14 -24 1321 0
-15 -22 1323 0
-15 -23 1321 0
-15 -24 1322 0
1324 1325 1326 0
-1321 -25 1324 0
-1321 -26 1325 0
-1321 -27 1326 0
-1322 -25 1325 0
-1322 -26 1326 0
-1322 -27 1324 0
-1323 -25 1326 0
-1323 -26 1324 0
-1323 -27 1325 0
1327 1328 1329 0
-1324 -112 1327 0
-1324 -113 1328 0
-1324 -114 1329 0
-1325 -112 1328 0
-1325 -113 1329 0
-1325 -114 1327 0
-1326 -112 1329 0
-1326 -113 1327 0
-1326 -114 1328 0
1330 1331 1332 0
-1327 -115 1330 0
-1327 -116 1331 0
-1327 -117 1332 0
-1328 -115 1331 0
-1328 -116 1332 0
-1328 -117 1330 0
-1329 -115 1332 0
-1329 -116 1330 0
-1329 -117 1331 0
1333 1334 1335 0
-1330 -133 1333 0
-1330 -134 1334 0
-1330 -135 1335 0
-1331 -133 1334 0
-1331 -134 1335 0
-1331 -135 1333 0
-1332 -133 1335 0
-1332 -134 1333 0
-1332 -135 1334 0
1336 1337 1338 0
-16 -19 1336 0
-16 -20 1337 0
-16 -21 1338 0
-17 -19 1337 0
-17 -20 1338 0
-17 -21 1336 0
-18 -19 1338 0
-18 -20 1336 0
-18 -21 1337 0
1339 1340 1341 0
-1336 -22 1339 0
-1336 -23 1340 0
-1336 -24 1341 0
-1337 -22 1340 0
-1337 -23 1341 0
-1337 -24 1339 0
-1338 -22 1341 0
-1338 -23 1339 0
-1338 -24 1340 0
1342 1343 1344 0
-1339 -118 1342 0
-1339 -119 1343 0
-1339 -120 1344 0
-1340 -118 1343 0
-1340 -119 1344 0
-1340 -120 1342 0
-1341 -118 1344 0
-1341 -119 1342 0
-1341 -120 1343 0
1345 1346 1347 0
-1342 -121 1345 0
-1342 -122 1346 0
-1342 -123 1347 0
-1343 -121 1346 0
-1343 -122 1347 0
-1343 -123 1345 0
-1344 -121 1347 0
-1344 -122 1345 0
-1344 -123 1346 0
1348 1349 1350 0
-1345 -127 1348 0
-1345 -128 1349 0
-1345 -129 1350 0
-1346 -127 1349 0
-1346 -128 1350 0
-1346 -129 1348 0
-1347 -127 1350 0
-1347 -128 1348 0
-1347 -129 1349 0
1351 1352 1353 0
-16 -19 1351 0
-16 -20 1352 0
-16 -21 1353 0
-17 -19 1352 0
-17 -20 1353 0
-17 -21 1351 0
-18 -19 1353 0
-18 -20 1351 0
-18 -21 1352 0
1354 1355 1356 0
-1351 -25 1354 0
-1351 -26 1355 0
-1351 -27 1356 0
-1352 -25 1355 0
-1352 -26 1356 0
-1352 -27 1354 0
-1353 -25 1356 0
-1353 -26 1354 0
-1353 -27 1355 0
1357 1358 1359 0
-1354 -118 1357 0
-1354 -119 1358 0
-1354 -120 1359 0
-1355 -118 1358 0
-1355 -119 1359 0
-1355 -120 1357 0
-1356 -118 1359 0
-1356 -119 1357 0
-1356 -120 1358 0
1360 1361 1362 0
-1357 -124 1360 0
-1357 -125 1361 0
-1357 -126 1362 0
-1358 -124 1361 0
-1358 -125 1362 0
-1358 -126 1360 0
-1359 -124 1362 0
-1359 -125 1360 0
-1359 -126 1361 0
1363 1364 1365 0
-1360 -130 1363 0
-1360 -131 1364 0
-1360 -132 1365 0
-1361 -130 1364 0
-1361 -131 1365 0
-1361 -132 1363 0
-1362 -130 1365 0
-1362 -131 1363 0
-1362 -132 1364 0
1366 1367 1368 0
-16 -22 1366 0
-16 -23 1367 0
-16 -24 1368 0
-17 -22 1367 0
-17 -23 1368 0
-17 -24 1366 0
-18 -22 1368 0
-18 -23 1366 0
-18 -24 1367 0
1369 1370 1371 0
-1366 -25 1369 0
-1366 -26 1370 0
-1366 -27 1371 0
-1367 -25 1370 0
-1367 -26 1371 0
-1367 -27 1369 0
-1368 -25 1371 0
-1368 -26 1369 0
-1368 -27 1370 0
1372 1373 1374 0
-1369 -121 1372 0
-1369 -122 1373 0
-1369 -123 1374 0
-1370 -121 1373 0
-1370 -122 1374 0
-1370 -123 1372 0
-1371 -121 1374 0
-1371 -122 1372 0
-1371 -123 1373 0
1375 1376 1377 0
-1372 -124 1375 0
-1372 -125 1376 0
-1372 -126 1377 0
-1373 -124 1376 0
-1373 -125 1377 0
-1373 -126 1375 0
-1374 -124 1377 0
-1374 -125 1375 0
-1374 -126 1376 0
1378 1379 1380 0
-1375 -133 1378 0
-1375 -134 1379 0
-1375 -135 1380 0
-1376 -133 1379 0
-1376 -134 1380 0
-1376 -135 1378 0
-1377 -133 1380 0
-1377 -134 1378 0
-1377 -135 1379 0
1381 1382 1383 0
-19 -22 1381 0
-19 -23 1382 0
-19 -24 1383 0
-20 -22 1382 0
-20 -23 1383 0
-20 -24 1381 0
-21 -22 1383 0
-21 -23 1381 0
-21 -24 1382 0
1384 1385 1386 0
-1381 -25 1384 0
-1381 -26 1385 0
-1381 -27 1386 0
-1382 -25 1385 0
-1382 -26 1386 0
-1382 -27 1384 0
-1383 -25 1386 0
-1383 -26 1384 0
-1383 -27 1385 0
1387 1388 1389 0
-1384 -127 1387 0
-1384 -128 1388 0
-1384 -129 1389 0
-1385 -127 1388 0
-1385 -128 1389 0
-1385 -129 1387 0
-1386 -127 1389 0
-1386 -128 1387 0
-1386 -129 1388 0
1390 1391 1392 0
-1387 -130 1390 0
-1387 -131 1391 0
-1387 -132 1392 0
-1388 -130 1391 0
-1388 -131 1392 0
-1388 -132 1390 0
-1389 -130 1392 0
-1389 -131 1390 0
-1389 -132 1391 0
1393 1394 1395 0
-1390 -133 1393 0
-1390 -134 1394 0
-1390 -135 1395 0
-1391 -133 1394 0
-1391 -134 1395 0
-1391 -135 1393 0
-1392 -133 1395 0
-1392 -134 1393 0
-1392 -135 1394 0
1396 1397 1398 0
-28 -31 1396 0
-28 -32 1397 0
-28 -33 1398 0
-29 -31 1397 0
-29 -32 1398 0
-29 -33 1396 0
-30 -31 1398 0
-30 -32 1396 0
-30 -33 1397 0
1399 1400 1401 0
-1396 -34 1399 0
-1396 -35 1400 0
-1396 -36 1401 0
-1397 -34 1400 0
-1397 -35 1401 0
-1397 -36 1399 0
-1398 -34 1401 0
-1398 -35 1399 0
-1398 -36 1400 0
1402 1403 1404 0
-1399 -52 1402 0
-1399 -53 1403 0
-1399 -54 1404 0
-1400 -52 1403 0
-1400 -53 1404 0
-1400 -54 1402 0
-1401 -52 1404 0
-1401 -53 1402 0
-1401 -54 1403 0
1405 1406 1407 0
-1402 -55 1405 0
-1402 -56 1406 0
-1402 -57 1407 0
-1403 -55 1406 0
-1403 -56 1407 0
-1403 -57 1405 0
-1404 -55 1407 0
-1404 -56 1405 0
-1404 -57 1406 0
1408 1409 1410 0
-1405 -73 1408 0
-1405 -74 1409 0
-1405 -75 1410 0
-1406 -73 1409 0
-1406 -74 1410 0
-1406 -75 1408 0
-1407 -73 1410 0
-1407 -74 1408 0
-1407 -75 1409 0
1411 1412 1413 0
-28 -31 1411 0
-28 -32 1412 0
-28 -33 1413 0
-29 -31 1412 0
-29 -32 1413 0
-29 -33 1411 0
-30 -31 1413 0
-30 -32 1411 0
-30 -33 1412 0
1414 1415 1416 0
-1411 -37 1414 0
-1411 -38 1415 0
-1411 -39 1416 0
-1412 -37 1415 0
-1412 -38 1416 0
-1412 -39 1414 0
-1413 -37 1416 0
-1413 -38 1414 0
-1413 -39 1415 0
1417 1418 1419 0
-1414 -52 1417 0
-1414 -53 1418 0
-1414 -54 1419 0
-1415 -52 1418 0
-1415 -53 1419 0
-1415 -54 1417 0
-1416 -52 1419 0
-1416 -53 1417 0
-1416 -54 1418 0
1420 1421 1422 0
-1417 -58 1420 0
-1417 -59 1421 0
-1417 -60 1422 0
-1418 -58 1421 0
-1418 -59 1422 0
-1418 -60 1420 0
-1419 -58 1422 0
-1419 -59 1420 0
-1419 -60 1421 0
1423 1424 1425 0
-1420 -76 1423 0
-1420 -77 1424 0
-1420 -78 1425 0
-1421 -76 1424 0
-1421 -77 1425 0
-1421 -78 1423 0
-1422 -76 1425 0
-1422 -77 1423 0
-1422 -78 1424 0
1426 1427 1428 0
-28 -31 1426 0
-28 -32 1427 0
-28 -33 1428 0
-29 -31 1427 0
-29 -32 1428 0
-29 -33 1426 0
-30 -31 1428 0
-30 -32 1426 0
-30 -33 1427 0
1429 1430 1431 0
-1426 -40 1429 0
-1426 -41 1430 0
-1426 -42 1431 0
-1427 -40 1430 0
-1427 -41 1431 0
-1427 -42 1429 0
-1428 -40 1431 0
-1428 -41 1429 0
-1428 -42 1430 0
1432 1433 1434 0
-1429 -52 1432 0
-1429 -53 1433 0
-1429 -54 1434 0
-1430 -52 1433 0
-1430 -53 1434 0
-1430 -54 1432 0
-1431 -52 1434 0
-1431 -53 1432 0
-1431 -54 1433 0
1435 1436 1437 0
-1432 -61 1435 0
-1432 -62 1436 0
-1432 -63 1437 0
-1433 -61 1436 0
-1433 -62 1437 0
-1433 -63 1435 0
-1434 -61 1437 0
-1434 -62 1435 0
-1434 -63 1436 0
1438 1439 1440 0
-1435 -79 1438 0
-1435 -80 1439 0
-1435 -81 1440 0
-1436 -79 1439 0
-1436 -80 1440 0
-1436 -81 1438 0
-1437 -79 1440 0
-1437 -80 1438 0
-1437 -81 1439 0
1441 1442 1443 0
-28 -31 1441 0
-28 -32 1442 0
-28 -33 1443 0
-29 -31 1442 0
-29 -32 1443 0
-29 -33 1441 0
-30 -31 1443 0
-30 -32 1441 0
-30 -33 1442 0
1444 1445 1446 0
-1441 -43 1444 0
-1441 -44 1445 0
-1441 -45 1446 0
-1442 -43 1445 0
-1442 -44 1446 0
-1442 -45 1444 0
-1443 -43 1446 0
-1443 -44 1444 0
-1443 -45 1445 0
1447 1448 1449 0
-1444 -52 1447 0
-1444 -53 1448 0
-1444 -54 1449 0
-1445 -52 1448 0
-1445 -53 1449 0
-1445 -54 1447 0
-1446 -52 1449 0
-1446 -53 1447 0
-1446 -54 1448 0
1450 1451 1452 0
-1447 -64 1450 0
-1447 -65 1451 0
-1447 -66 1452 0
-1448 -64 1451 0
-1448 -65 1452 0
-1448 -66 1450 0
-1449 -64 1452 0
-1449 -65 1450 0
-1449 -66 1451 0
1453 1454 1455 0
-1450 -82 1453 0
-1450 -83 1454 0
-1450 -84 1455 0
-1451 -82 1454 0
-1451 -83 1455 0
-1451 -84 1453 0
-1452 -82 1455 0
-1452 -83 1453 0
-1452 -84 1454 0
1456 1457 1458 0
-28 -31 1456 0
-28 -32 1457 0
-28 -33 1458 0
-29 -31 1457 0
-29 -32 1458 0
-29 -33 1456 0
-30 -31 1458 0
-30 -32 1456 0
-30 -33 1457 0
1459 1460 1461 0
-1456 -46 1459 0
-1456 -47 1460 0
-1456 -48 1461 0
-1457 -46 1460 0
-1457 -47 1461 0
-1457 -48 1459 0
-1458 -46 1461 0
-1458 -47 1459 0
-1458 -48 1460 0
1462 1463 1464 0
-1459 -52 1462 0
-1459 -53 1463 0
-1459 -54 1464 0
-1460 -52 1463 0
-1460 -53 1464 0
-1460 -54 1462 0
-1461 -52 1464 0
-1461 -53 1462 0
-1461 -54 1463 0
1465 1466 1467 0
-1462 -67 1465 0
-1462 -68 1466 0
-1462 -69 1467 0
-1463 -67 1466 0
-1463 -68 1467 0
-1463 -69 1465 0
-1464 -67 1467 0
-1464 -68 1465 0
-1464 -69 1466 0
1468 1469 1470 0
-1465 -85 1468 0
-1465 -86 1469 0
-1465 -87 1470 0
-1466 -85 1469 0
-1466 -86 1470 0
-1466 -87 1468 0
-1467 -85 1470 0
-1467 -86 1468 0
-1467 -87 1469 0
1471 1472 1473 0
-28 -31 1471 0
-28 -32 1472 0
-28 -33 1473 0
-29 -31 1472 0
-29 -32 1473 0
-29 -33 1471 0
-30 -31 1473 0
-30 -32 1471 0
-30 -33 1472 0
1474 1475 1476 0
-1471 -49 1474 0
-1471 -50 1475 0
-1471 -51 1476 0
-1472 -49 1475 0
-1472 -50 1476 0
-1472 -51 1474 0
-1473 -49 1476 0
-1473 -50 1474 0
-1473 -51 1475 0
1477 1478 1479 0
-1474 -52 1477 0
-1474 -53 1478 0
-1474 -54 1479 0
-1475 -52 1478 0
-1475 -53 1479 0
-1475 -54 1477 0
-1476 -52 1479 0
-1476 -53 1477 0
-1476 -54 1478 0
1480 1481 1482 0
-1477 -70 1480 0
-1477 -71 1481 0
-1477 -72 1482 0
-1478 -70 1481 0
-1478 -71 1482 0
-1478 -72 1480 0
-1479 -70 1482 0
-1479 -71 1480 0
-1479 -72 1481 0
1483 1484 1485 0
-1480 -88 1483 0
-1480 -89 1484 0
-1480 -90 1485 0
-1481 -88 1484 0
-1481 -89 1485 0
-1481 -90 1483 0
-1482 -88 1485 0
-1482 -89 1483 0
-1482 -90 1484 0
1486 1487 1488 0
-28 -34 1486 0
-28 -35 1487 0
-28 -36 1488 0
-29 -34 1487 0
-29 -35 1488 0
-29 -36 1486 0
-30 -34 1488 0
-30 -35 1486 0
-30 -36 1487 0
1489 1490 1491 0
-1486 -37 1489 0
-1486 -38 1490 0
-1486 -39 1491 0
-1487 -37 1490 0
-1487 -38 1491 0
-1487 -39 1489 0
-1488 -37 1491 0
-1488 -38 1489 0
-1488 -39 1490 0
1492 1493 1494 0
-1489 -55 1492 0
-1489 -56 1493 0
-1489 -57 1494 0
-1490 -55 1493 0
-1490 -56 1494 0
-1490 -57 1492 0
-1491 -55 1494 0
-1491 -56 1492 0
-1491 -57 1493 0
1495 1496 1497 0
-1492 -58 1495 0
-1492 -59 1496 0
-1492 -60 1497 0
-1493 -58 1496 0
-1493 -59 1497 0
-1493 -60 1495 0
-1494 -58 1497 0
-1494 -59 1495 0
-1494 -60 1496 0
1498 1499 1500 0
-1495 -91 1498 0
-1495 -92 1499 0
-1495 -93 1500 0
-1496 -91 1499 0
-1496 -92 1500 0
-1496 -93 1498 0
-1497 -91 1500 0
-1497 -92 1498 0
-1497 -93 1499 0
1501 1502 1503 0
-28 -34 1501 0
-28 -35 1502 0
-28 -36 1503 0
-29 -34 1502 0
-29 -35 1503 0
-29 -36 1501 0
-30 -34 1503 0
-30 -35 1501 0
-30 -36 1502 0
1504 1505 1506 0
-1501 -40 1504 0
-1501 -41 1505 0
-1501 -42 1506 0
-1502 -40 1505 0
-1502 -41 1506 0
-1502 -42 1504 0
-1503 -40 1506 0
-1503 -41 1504 0
-1503 -42 1505 0
1507 1508 1509 0
-1504 -55 1507 0
-1504 -56 1508 0
-1504 -57 1509 0
-1505 -55 1508 0
-1505 -56 1509 0
-1505 -57 1507 0
-1506 -55 1509 0
-1506 -56 1507 0
-1506 -57 1508 0
1510 1511 1512 0
-1507 -61 1510 0
-1507 -62 1511 0
-1507 -63 1512 0
-1508 -61 1511 0
-1508 -62 1512 0
-1508 -63 1510 0
-1509 -61 1512 0
-1509 -62 1510 0
-1509 -63 1511 0
1513 1514 1515 0
-1510 -94 1513 0
-1510 -95 1514 0
-1510 -96 1515 0
-1511 -94 1514 0
-1511 -95 1515 0
-1511 -96 1513 0
-1512 -94 1515 0
-1512 -95 1513 0
-1512 -96 1514 0
1516 1517 1518 0
-28 -34 1516 0
-28 -35 1517 0
-28 -36 1518 0
-29 -34 1517 0
-29 -35 1518 0
-29 -36 1516 0
-30 -34 1518 0
-30 -35 1516 0
-30 -36 1517 0
1519 1520 1521 0
-1516 -43 1519 0
-1516 -44 1520 0
-1516 -45 1521 0
-1517 -43 1520 0
-1517 -44 1521 0
-1517 -45 1519 0
-1518 -43 1521 0
-1518 -44 1519 0
-1518 -45 1520 0
1522 1523 1524 0
-1519 -55 1522 0
-1519 -56 1523 0
-1519 -57 1524 0
-1520 -55 1523 0
-1520 -56 1524 0
-1520 -57 1522 0
-1521 -55 1524 0
-1521 -56 1522 0
-1521 -57 1523 0
1525 1526 1527 0
-1522 -64 1525 0
-1522 -65 1526 0
-1522 -66 1527 0
-1523 -64 1526 0
-1523 -65 1527 0
-1523 -66 1525 0
-1524 -64 1527 0
-1524 -65 1525 0
-1524 -66 1526 0
1528 1529 1530 0
-1525 -97 1528 0
-1525 -98 1529 0
-1525 -99 1530 0
-1526 -97 1529 0
-1526 -98 1530 0
-1526 -99 1528 0
-1527 -97 1530 0
-1527 -98 1528 0
-1527 -99 1529 0
1531 1532 1533 0
-28 -34 1531 0
-28 -35 1532 0
-28 -36 1533 0
-29 -34 1532 0
-29 -35 1533 0
-29 -36 1531 0
-30 -34 1533 0
-30 -35 1531 0
-30 -36 1532 0
1534 1535 1536 0
-1531 -46 1534 0
-1531 -47 1535 0
-1531 -48 1536 0
-1532 -46 1535 0
-1532 -47 1536 0
-1532 -48 1534 0
-1533 -46 1536 0
-1533 -47 1534 0
-1533 -48 1535 0
1537 1538 1539 0
-1534 -55 1537 0
-1534 -56 1538 0
-1534 -57 1539 0
-1535 -55 1538 0
-1535 -56 1539 0
-1535 -57 1537 0
-1536 -55 1539 0
-1536 -56 1537 0
-1536 -57 1538 0
1540 1541 1542 0
-1537 -67 1540 0
-1537 -68 1541 0
-1537 -69 1542 0
-1538 -67 1541 0
-1538 -68 1542 0
-1538 -69 1540 0
-1539 -67 1542 0
-1539 -68 1540 0
-1539 -69 1541 0
1543 1544 1545 0
-1540 -100 1543 0
-1540 -101 1544 0
-1540 -102 1545 0
-1541 -100 1544 0
-1541 -101 1545 0
-1541 -102 1543 0
-1542 -100 1545 0
-1542 -101 1543 0
-1542 -102 1544 0
1546 1547 1548 0
-28 -34 1546 0
-28 -35 1547 0
-28 -36 1548 0
-29 -34 1547 0
-29 -35 1548 0
-29 -36 1546 0
-30 -34 1548 0
-30 -35 1546 0
-30 -36 1547 0
1549 1550 1551 0
-1546 -49 1549 0
-1546 -50 1550 0
-1546 -51 1551 0
-1547 -49 1550 0
-1547 -50 1551 0
-1547 -51 1549 0
-1548 -49 1551 0
-1548 -50 1549 0
-1548 -51 1550 0
1552 1553 1554 0
-1549 -55 1552 0
-1549 -56 1553 0
-1549 -57 1554 0
-1550 -55 1553 0
-1550 -56 1554 0
-1550 -57 1552 0
-1551 -55 1554 0
-1551 -56 1552 0
-1551 -57 1553 0
1555 1556 1557 0
-1552 -70 1555 0
-1552 -71 1556 0
-1552 -72 1557 0
-1553 -70 1556 0
-1553 -71 1557 0
-1553 -72 1555 0
-1554 -70 1557 0
-1554 -71 1555 0
-1554 -72 1556 0
1558 1559 1560 0
-1555 -103 1558 0
-1555 -104 1559 0
-1555 -105 1560 0
-1556 -103 1559 0
-1556 -104 1560 0
-1556 -105 1558 0
-1557 -103 1560 0
-1557 -104 1558 0
-1557 -105 1559 0
1561 1562 1563 0
-28 -37 1561 0
-28 -38 1562 0
-28 -39 1563 0
-29 -37 1562 0
-29 -38 1563 0
-29 -39 1561 0
-30 -37 1563 0
-30 -38 1561 0
-30 -39 1562 0
1564 1565 1566 0
-1561 -40 1564 0
-1561 -41 1565 0
-1561 -42 1566 0
-1562 -40 1565 0
-1562 -41 1566 0
-1562 -42 1564 0
-1563 -40 1566 0
-1563 -41 1564 0
-1563 -42 1565 0
1567 1568 1569 0
-1564 -58 1567 0
-1564 -59 1568 0
-1564 -60 1569 0
-1565 -58 1568 0
-1565 -59 1569 0
-1565 -60 1567 0
-1566 -58 1569 0
-1566 -59 1567 0
-1566 -60 1568 0
1570 1571 1572 0
-1567 -61 1570 0
-1567 -62 1571 0
-1567 -63 1572 0
-1568 -61 1571 0
-1568 -62 1572 0
-1568 -63 1570 0
-1569 -61 1572 0
-1569 -62 1570 0
-1569 -63 1571 0
1573 1574 1575 0
-1570 -106 1573 0
-1570 -107 1574 0
-1570 -108 1575 0
-1571 -106 1574 0
-1571 -107 1575 0
-1571 -108 1573 0
-1572 -106 1575 0
-1572 -107 1573 0
-1572 -108 1574 0
1576 1577 1578 0
-28 -37 1576 0
-28 -38 1577 0
-28 -39 1578 0
-29 -37 1577 0
-29 -38 1578 0
-29 -39 1576 0
-30 -37 1578 0
-30 -38 1576 0
-30 -39 1577 0
1579 1580 1581 0
-1576 -43 1579 0
-1576 -44 1580 0
-1576 -45 1581 0
-1577 -43 1580 0
-1577 -44 1581 0
-1577 -45 1579 0
-1578 -43 1581 0
-1578 -44 1579 0
-1578 -45 1580 0
1582 1583 1584 0
-1579 -58 1582 0
-1579 -59 1583 0
-1579 -60 1584 0
-1580 -58 1583 0
-1580 -59 1584 0
-1580 -60 1582 0
-1581 -58 1584 0
-1581 -59 1582 0
-1581 -60 1583 0
1585 1586 1587 0
-1582 -64 1585 0
-1582 -65 1586 0
-1582 -66 1587 0
-1583 -64 1586 0
-1583 -65 1587 0
-1583 -66 1585 0
-1584 -64 1587 0
-1584 -65 1585 0
-1584 -66 1586 0
1588 1589 1590 0
-1585 -109 1588 0
-1585 -110 1589 0
-1585 -111 1590 0
-1586 -109 1589 0
-1586 -110 1590 0
-1586 -111 1588 0
-1587 -109 1590 0
-1587 -110 1588 0
-1587 -111 1589 0
1591 1592 1593 0
-28 -37 1591 0
-28 -38 1592 0
-28 -39 1593 0
-29 -37 1592 0
-29 -38 1593 0
-29 -39 1591 0
-30 -37 1593 0
-30 -38 1591 0
-30 -39 1592 0
1594 1595 1596 0
-1591 -46 1594 0
-1591 -47 1595 0
-1591 -48 1596 0
-1592 -46 1595 0
-1592 -47 1596 0
-1592 -48 1594 0
-1593 -46 1596 0
-1593 -47 1594 0
-1593 -48 1595 0
1597 1598 1599 0
-1594 -58 1597 0
-1594 -59 1598 0
-1594 -60 1599 0
-1595 -58 1598 0
-1595 -59 1599 0
-1595 -60 1597 0
-1596 -58 1599 0
-1596 -59 1597 0
-1596 -60 1598 0
1600 1601 1602 0
-1597 -67 1600 0
-1597 -68 1601 0
-1597 -69 1602 0
-1598 -67 1601 0
-1598 -68 1602 0
-1598 -69 1600 0
-1599 -67 1602 0
-1599 -68 1600 0
-1599 -69 1601 0
1603 1604 1605 0
-1600 -112 1603 0
-1600 -113 1604 0
-1600 -114 1605 0
-1601 -112 1604 0
-1601 -113 1605 0
-1601 -114 1603 0
-1602 -112 1605 0
-1602 -113 1603 0
-1602 -114 1604 0
1606 1607 1608 0
-28 -37 1606 0
-28 -38 1607 0
-28 -39 1608 0
-29 -37 1607 0
-29 -38 1608 0
-29 -39 1606 0
-30 -37 1608 0
-30 -38 1606 0
-30 -39 1607 0
1609 1610 1611 0
-1606 -49 1609 0
-1606 -50 1610 0
-1606 -51 1611 0
-1607 -49 1610 0
-1607 -50 1611 0
-1607 -51 1609 0
-1608 -49 1611 0
-1608 -50 1609 0
-1608 -51 1610 0
1612 1613 1614 0
-1609 -58 1612 0
-1609 -59 1613 0
-1609 -60 1614 0
-1610 -58 1613 0
-1610 -59 1614 0
-1610 -60 1612 0
-1611 -58 1614 0
-1611 -59 1612 0
-1611 -60 1613 0
1615 1616 1617 0
-1612 -70 1615 0
-1612 -71 1616 0
-1612 -72 1617 0
-1613 -70 1616 0
-1613 -71 1617 0
-1613 -72 1615 0
-1614 -70 1617 0
-1614 -71 1615 0
-1614 -72 1616 0
1618 1619 1620 0
-1615 -115 1618 0
-1615 -116 1619 0
-1615 -117 1620 0
-1616 -115 1619 0
-1616 -116 1620 0
-1616 -117 1618 0
-1617 -115 1620 0
-1617 -116 1618 0
-1617 -117 1619 0
1621 1622 1623 0
-28 -40 1621 0
-28 -41 1622 0
-28 -42 1623 0
-29 -40 1622 0
-29 -41 1623 0
-29 -42 1621 0
-30 -40 1623 0
-30 -41 1621 0
-30 -42 1622 0
1624 1625 1626 0
-1621 -43 1624 0
-1621 -44 1625 0
-1621 -45 1626 0
-1622 -43 1625 0
-1622 -44 1626 0
-1622 -45 1624 0
-1623 -43 1626 0
-1623 -44 1624 0
-1623 -45 1625 0
1627 1628 1629 0
-1624 -61 1627 0
-1624 -62 1628 0
-1624 -63 1629 0
-1625 -61 1628 0
-1625 -62 1629 0
-1625 -63 1627 0
-1626 -61 1629 0
-1626 -62 1627 0
-1626 -63 1628 0
1630 1631 1632 0
-1627 -64 1630 0
-1627 -65 1631 0
-1627 -66 1632 0
-1628 -64 1631 0
-1628 -65 1632 0
-1628 -66 1630 0
-1629 -64 1632 0
-1629 -65 1630 0
-1629 -66 1631 0
1633 1634 1635 0
-1630 -118 1633 0
-1630 -119 1634 0
-1630 -120 1635 0
-1631 -118 1634 0
-1631 -119 1635 0
-1631 -120 1633 0
-1632 -118 1635 0
-1632 -119 1633 0
-1632 -120 1634 0
1636 1637 1638 0
-28 -40 1636 0
-28 -41 1637 0
-28 -42 1638 0
-29 -40 1637 0
-29 -41 1638 0
-29 -42 1636 0
-30 -40 1638 0
-30 -41 1636 0
-30 -42 1637 0
1639 1640 1641 0
-1636 -46 1639 0
-1636 -47 1640 0
-1636 -48 1641 0
-1637 -46 1640 0
-1637 -47 1641 0
-1637 -48 1639 0
-1638 -46 1641 0
-1638 -47 1639 0
-1638 -48 1640 0
1642 1643 1644 0
-1639 -61 1642 0
-1639 -62 1643 0
-1639 -63 1644 0
-1640 -61 1643 0
-1640 -62 1644 0
-1640 -63 1642 0
-1641 -61 1644 0
-1641 -62 1642 0
-1641 -63 1643 0
1645 1646 1647 0
-1642 -67 1645 0
-1642 -68 1646 0
-1642 -69 1647 0
-1643 -67 1646 0
-1643 -68 1647 0
-1643 -69 1645 0
-1644 -67 1647 0
-1644 -68 1645 0
-1644 -69 1646 0
1648 1649 1650 0
-1645 -121 1648 0
-1645 -122 1649 0
-1645 -123 1650 0
-1646 -121 1649 0
-1646 -122 1650 0
-1646 -123 1648 0
-1647 -121 1650 0
-1647 -122 1648 0
-1647 -123 1649 0
1651 1652 1653 0
-28 -40 1651 0
-28 -41 1652 0
-28 -42 1653 0
-29 -40 1652 0
-29 -41 1653 0
-29 -42 1651 0
-30 -40 1653 0
-30 -41 1651 0
-30 -42 1652 0
1654 1655 1656 0
-1651 -49 1654 0
-1651 -50 1655 0
-1651 -51 1656 0
-1652 -49 1655 0
-1652 -50 1656 0
-1652 -51 1654 0
-1653 -49 1656 0
-1653 -50 1654 0
-1653 -51 1655 0
1657 1658 1659 0
-1654 -61 1657 0
-1654 -62 1658 0
-1654 -63 1659 0
-1655 -61 1658 0
-1655 -62 1659 0
-1655 -63 1657 0
-1656 -61 1659 0
-1656 -62 1657 0
-1656 -63 1658 0
1660 1661 1662 0
-1657 -70 1660 0
-1657 -71 1661 0
-1657 -72 1662 0
-1658 -70 1661 0
-1658 -71 1662 0
-1658 -72 1660 0
-1659 -70 1662 0
-1659 -71 1660 0
-1659 -72 1661 0
1663 1664 1665 0
-1660 -124 1663 0
-1660 -125 1664 0
-1660 -126 1665 0
-1661 -124 1664 0
-1661 -125 1665 0
-1661 -126 1663 0
-1662 -124 1665 0
-1662 -125 1663 0
-1662 -126 1664 0
1666 1667 1668 0
-28 -43 1666 0
-28 -44 1667 0
-28 -45 1668 0
-29 -43 1667 0
-29 -44 1668 0
-29 -45 1666 0
-30 -43 1668 0
-30 -44 1666 0
-30 -45 1667 0
1669 1670 1671 0
-1666 -46 1669 0
-1666 -47 1670 0
-1666 -48 1671 0
-1667 -46 1670 0
-1667 -47 1671 0
-1667 -48 1669 0
-1668 -46 1671 0
-1668 -47 1669 0
-1668 -48 1670 0
1672 1673 1674 0
-1669 -64 1672 0
-1669 -65 1673 0
-1669 -66 1674 0
-1670 -64 1673 0
-1670 -65 1674 0
-1670 -66 1672 0
-1671 -64 1674 0
-1671 -65 1672 0
-1671 -66 1673 0
1675 1676 1677 0
-1672 -67 1675 0
-1672 -68 1676 0
-1672 -69 1677 0
-1673 -67 1676 0
-1673 -68 1677 0
-1673 -69 1675 0
-1674 -67 1677 0
-1674 -68 1675 0
-1674 -69 1676 0
1678 1679 1680 0
-1675 -127 1678 0
-1675 -128 1679 0
-1675 -129 1680 0
-1676 -127 1679 0
-1676 -128 1680 0
-1676 -129 1678 0
-1677 -127 1680 0
-1677 -128 1678 0
-1677 -129 1679 0
1681 1682 1683 0
-28 -43 1681 0
-28 -44 1682 0
-28 -45 1683 0
-29 -43 1682 0
-29 -44 1683 0
-29 -45 1681 0
-30 -43 1683 0
-30 -44 1681 0
-30 -45 1682 0
1684 1685 1686 0
-1681 -49 1684 0
-1681 -50 1685 0
-1681 -51 1686 0
-1682 -49 1685 0
-1682 -50 1686 0
-1682 -51 1684 0
-1683 -49 1686 0
-1683 -50 1684 0
-1683 -51 1685 0
1687 1688 1689 0
-1684 -64 1687 0
-1684 -65 1688 0
-1684 -66 1689 0
-1685 -64 1688 0
-1685 -65 1689 0
-1685 -66 1687 0
-1686 -64 1689 0
-1686 -65 1687 0
-1686 -66 1688 0
1690 1691 1692 0
-1687 -70 1690 0
-1687 -71 1691 0
-1687 -72 1692 0
-1688 -70 1691 0
-1688 -71 1692 0
-1688 -72 1690 0
-1689 -70 1692 0
-1689 -71 1690 0
-1689 -72 1691 0
1693 1694 1695 0
-1690 -130 1693 0
-1690 -131 1694 0
-1690 -132 1695 0
-1691 -130 1694 0
-1691 -131 1695 0
-1691 -132 1693 0
-1692 -130 1695 0
-1692 -131 1693 0
-1692 -132 1694 0
1696 1697 1698 0
-28 -46 1696 0
-28 -47 1697 0
-28 -48 1698 0
-29 -46 1697 0
-29 -47 1698 0
-29 -48 1696 0
-30 -46 1698 0
-30 -47 1696 0
-30 -48 1697 0
1699 1700 1701 0
-1696 -49 1699 0
-1696 -50 1700 0
-1696 -51 1701 0
-1697 -49 1700 0
-1697 -50 1701 0
-1697 -51 1699 0
-1698 -49 1701 0
-1698 -50 1699 0
-1698 -51 1700 0
1702 1703 1704 0
-1699 -67 1702 0
-1699 -68 1703 0
-1699 -69 1704 0
-1700 -67 1703 0
-1700 -68 1704 0
-1700 -69 1702 0
-1701 -67 1704 0
-1701 -68 1702 0
-1701 -69 1703 0
1705 1706 1707 0
-1702 -70 1705 0
-1702 -71 1706 0
-1702 -72 1707 0
-1703 -70 1706 0
-1703 -71 1707 0
-1703 -72 1705 0
-1704 -70 1707 0
-1704 -71 1705 0
-1704 -72 1706 0
1708 1709 1710 0
-1705 -133 1708 0
-1705 -134 1709 0
-1705 -135 1710 0
-1706 -133 1709 0
-1706 -134 1710 0
-1706 -135 1708 0
-1707 -133 1710 0
-1707 -134 1708 0
-1707 -135 1709 0
1711 1712 1713 0
-31 -34 1711 0
-31 -35 1712 0
-31 -36 1713 0
-32 -34 1712 0
-32 -35 1713 0
-32 -36 1711 0
-33 -34 1713 0
-33 -35 1711 0
-33 -36 1712 0
1714 1715 1716 0
-1711 -37 1714 0
-1711 -38 1715 0
-1711 -39 1716 0
-1712 -37 1715 0
-1712 -38 1716 0
-1712 -39 1714 0
-1713 -37 1716 0
-1713 -38 1714 0
-1713 -39 1715 0
1717 1718 1719 0
-1714 -73 1717 0
-1714 -74 1718 0
-1714 -75 1719 0
-1715 -73 1718 0
-1715 -74 1719 0
-1715 -75 1717 0
-1716 -73 1719 0
-1716 -74 1717 0
-1716 -75 1718 0
1720 1721 1722 0
-1717 -76 1720 0
-1717 -77 1721 0
-1717 -78 1722 0
-1718 -76 1721 0
-1718 -77 1722 0
-1718 -78 1720 0
-1719 -76 1722 0
-1719 -77 1720 0
-1719 -78 1721 0
1723 1724 1725 0
-1720 -91 1723 0
-1720 -92 1724 0
-1720 -93 1725 0
-1721 -91 1724 0
-1721 -92 1725 0
-1721 -93 1723 0
-1722 -91 1725 0
-1722 -92 1723 0
-1722 -93 1724 0
1726 1727 1728 0
-31 -34 1726 0
-31 -35 1727 0
-31 -36 1728 0
-32 -34 1727 0
-32 -35 1728 0
-32 -36 1726 0
-33 -34 1728 0
-33 -35 1726 0
-33 -36 1727 0
1729 1730 1731 0
-1726 -40 1729 0
-1726 -41 1730 0
-1726 -42 1731 0
-1727 -40 1730 0
-1727 -41 1731 0
-1727 -42 1729 0
-1728 -40 1731 0
-1728 -41 1729 0
-1728 -42 1730 0
1732 1733 1734 0
-1729 -73 1732 0
-1729 -74 1733 0
-1729 -75 1734 0
-1730 -73 1733 0
-1730 -74 1734 0
-1730 -75 1732 0
-1731 -73 1734 0
-1731 -74 1732 0
-1731 -75 1733 0
1735 1736 1737 0
-1732 -79 1735 0
-1732 -80 1736 0
-1732 -81 1737 0
-1733 -79 1736 0
-1733 -80 1737 0
-1733 -81 1735 0
-1734 -79 1737 0
-1734 -80 1735 0
-1734 -81 1736 0
1738 1739 1740 0
-1735 -94 1738 0
-1735 -95 1739 0
-1735 -96 1740 0
-1736 -94 1739 0
-1736 -95 1740 0
-1736 -96 1738 0
-1737 -94 1740 0
-1737 -95 1738 0
-1737 -96 1739 0
1741 1742 1743 0
-31 -34 1741 0
-31 -35 1742 0
-31 -36 1743 0
-32 -34 1742 0
-32 -35 1743 0
-32 -36 1741 0
-33 -34 1743 0
-33 -35 1741 0
-33 -36 1742 0
1744 1745 1746 0
-1741 -43 1744 0
-1741 -44 1745 0
-1741 -45 1746 0
-1742 -43 1745 0
-1742 -44 1746 0
-1742 -45 1744 0
-1743 -43 1746 0
-1743 -44 1744 0
-1743 -45 1745 0
1747 1748 1749 0
-1744 -73 1747 0
-1744 -74 1748 0
-1744 -75 1749 0
-1745 -73 1748 0
-1745 -74 1749 0
-1745 -75 1747 0
-1746 -73 1749 0
-1746 -74 1747 0
-1746 -75 1748 0
1750 1751 1752 0
-1747 -82 1750 0
-1747 -83 1751 0
-1747 -84 1752 0
-1748 -82 1751 0
-1748 -83 1752 0
-1748 -84 1750 0
-1749 -82 1752 0
-1749 -83 1750 0
-1749 -84 1751 0
1753 1754 1755 0
-1750 -97 1753 0
-1750 -98 1754 0
-1750 -99 1755 0
-1751 -97 1754 0
-1751 -98 1755 0
-1751 -99 1753 0
-1752 -97 1755 0
-1752 -98 1753 0
-1752 -99 1754 0
1756 1757 1758 0
-31 -34 1756 0
-31 -35 1757 0
-31 -36 1758 0
-32 -34 1757 0
-32 -35 1758 0
-32 -36 1756 0
-33 -34 1758 0
-33 -35 1756 0
-33 -36 1757 0
1759 1760 1761 0
-1756 -46 1759 0
-1756 -47 1760 0
-1756 -48 1761 0
-1757 -46 1760 0
-1757 -47 1761 0
-1757 -48 1759 0
-1758 -46 1761 0
-1758 -47 1759 0
-1758 -48 1760 0
1762 1763 1764 0
-1759 -73 1762 0
-1759 -74 1763 0
-1759 -75 1764 0
-1760 -73 1763 0
-1760 -74 1764 0
-1760 -75 1762 0
-1761 -73 1764 0
-1761 -74 1762 0
-1761 -75 1763 0
1765 1766 1767 0
-1762 -85 1765 0
-1762 -86 1766 0
-1762 -87 1767 0
-1763 -85 1766 0
-1763 -86 1767 0
-1763 -87 1765 0
-1764 -85 1767 0
-1764 -86 1765 0
-1764 -87 1766 0
1768 1769 1770 0
-1765 -100 1768 0
-1765 -101 1769 0
-1765 -102 1770 0
-1766 -100 1769 0
-1766 -101 1770 0
-1766 -102 1768 0
-1767 -100 1770 0
-1767 -101 1768 0
-1767 -102 1769 0
1771 1772 1773 0
-31 -34 1771 0
-31 -35 1772 0
-31 -36 1773 0
-32 -34 1772 0
-32 -35 1773 0
-32 -36 1771 0
-33 -34 1773 0
-33 -35 1771 0
-33 -36 1772 0
1774 1775 1776 0
-1771 -49 1774 0
-1771 -50 1775 0
-1771 -51 1776 0
-1772 -49 1775 0
-1772 -50 1776 0
-1772 -51 1774 0
-1773 -49 1776 0
-1773 -50 1774 0
-1773 -51 1775 0
1777 1778 1779 0
-1774 -73 1777 0
-1774 -74 1778 0
-1774 -75 1779 0
-1775 -73 1778 0
-1775 -74 1779 0
-1775 -75 1777 0
-1776 -73 1779 0
-1776 -74 1777 0
-1776 -75 1778 0
1780 1781 1782 0
-1777 -88 1780 0
-1777 -89 1781 0
-1777 -90 1782 0
-1778 -88 1781 0
-1778 -89 1782 0
-1778 -90 1780 0
-1779 -88 1782 0
-1779 -89 1780 0
-1779 -90 1781 0
1783 1784 1785 0
-1780 -103 1783 0
-1780 -104 1784 0
-1780 -105 1785 0
-1781 -103 1784 0
-1781 -104 1785 0
-1781 -105 1783 0
-1782 -103 1785 0
-1782 -104 1783 0
-1782 -105 1784 0
1786 1787 1788 0
-31 -37 1786 0
-31 -38 1787 0
-31 -39 1788 0
-32 -37 1787 0
-32 -38 1788 0
-32 -39 1786 0
-33 -37 1788 0
-33 -38 1786 0
-33 -39 1787 0
1789 1790 1791 0
-1786 -40 1789 0
-1786 -41 1790 0
-1786 -42 1791 0
-1787 -40 1790 0
-1787 -41 1791 0
-1787 -42 1789 0
-1788 -40 1791 0
-1788 -41 1789 0
-1788 -42 1790 0
1792 1793 1794 0
-1789 -76 1792 0
-1789 -77 1793 0
-1789 -78 1794 0
-1790 -76 1793 0
-1790 -77 1794 0
-1790 -78 1792 0
-1791 -76 1794 0
-1791 -77 1792 0
-1791 -78 1793 0
1795 1796 1797 0
-1792 -79 1795 0
-1792 -80 1796 0
-1792 -81 1797 0
-1793 -79 1796 0
-1793 -80 1797 0
-1793 -81 1795 0
-1794 -79 1797 0
-1794 -80 1795 0
-1794 -81 1796 0
1798 1799 1800 0
-1795 -106 1798 0
-1795 -107 1799 0
-1795 -108 1800 0
-1796 -106 1799 0
-1796 -107 1800 0
-1796 -108 1798 0
-1797 -106 1800 0
-1797 -107 1798 0
-1797 -108 1799 0
1801 1802 1803 0
-31 -37 1801 0
-31 -38 1802 0
-31 -39 1803 0
-32 -37 1802 0
-32 -38 1803 0
-32 -39 1801 0
-33 -37 1803 0
-33 -38 1801 0
-33 -39 1802 0
1804 1805 1806 0
-1801 -43 1804 0
-1801 -44 1805 0
-1801 -45 1806 0
-1802 -43 1805 0
-1802 -44 1806 0
-1802 -45 1804 0
-1803 -43 1806 0
-1803 -44 1804 0
-1803 -45 1805 0
1807 1808 1809 0
-1804 -76 1807 0
-1804 -77 1808 0
-1804 -78 1809 0
-1805 -76 1808 0
-1805 -77 1809 0
-1805 -78 1807 0
-1806 -76 1809 0
-1806 -77 1807 0
-1806 -78 1808 0
1810 1811 1812 0
-1807 -82 1810 0
-1807 -83 1811 0
-1807 -84 1812 0
-1808 -82 1811 0
-1808 -83 1812 0
-1808 -84 1810 0
-1809 -82 1812 0
-1809 -83 1810 0
-1809 -84 1811 0
1813 1814 1815 0
-1810 -109 1813 0
-1810 -110 1814 0
-1810 -111 1815 0
-1811 -109 1814 0
-1811 -110 1815 0
-1811 -111 1813 0
-1812 -109 1815 0
-1812 -110 1813 0
-1812 -111 1814 0
1816 1817 1818 0
-31 -37 1816 0
-31 -38 1817 0
-31 -39 1818 0
-32 -37 1817 0
-32 -38 1818 0
-32 -39 1816 0
-33 -37 1818 0
-33 -38 1816 0
-33 -39 1817 0
1819 1820 1821 0
-1816 -46 1819 0
-1816 -47 1820 0
-1816 -48 1821 0
-1817 -46 1820 0
-1817 -47 1821 0
-1817 -48 1819 0
-1818 -46 1821 0
-1818 -47 1819 0
-1818 -48 1820 0
1822 1823 1824 0
-1819 -76 1822 0
-1819 -77 1823 0
-1819 -78 1824 0
-1820 -76 1823 0
-1820 -77 1824 0
-1820 -78 1822 0
-1821 -76 1824 0
-1821 -77 1822 0
-1821 -78 1823 0
1825 1826 1827 0
-1822 -85 1825 0
-1822 -86 1826 0
-1822 -87 1827 0
-1823 -85 1826 0
-1823 -86 1827 0
-1823 -87 1825 0
-1824 -85 1827 0
-1824 -86 1825 0
-1824 -87 1826 0
1828 1829 1830 0
-1825 -112 1828 0
-1825 -113 1829 0
-1825 -114 1830 0
-1826 -112 1829 0
-1826 -113 1830 0
-1826 -114 1828 0
-1827 -112 1830 0
-1827 -113 1828 0
-1827 -114 1829 0
1831 1832 1833 0
-31 -37 1831 0
-31 -38 1832 0
-31 -39 1833 0
-32 -37 1832 0
-32 -38 1833 0
-32 -39 1831 0
-33 -37 1833 0
-33 -38 1831 0
-33 -39 1832 0
1834 1835 1836 0
-1831 -49 1834 0
-1831 -50 1835 0
-1831 -51 1836 0
-1832 -49 1835 0
-1832 -50 1836 0
-1832 -51 1834 0
-1833 -49 1836 0
-1833 -50 1834 0
-1833 -51 1835 0
1837 1838 1839 0
-1834 -76 1837 0
-1834 -77 1838 0
-1834 -78 1839 0
-1835 -76 1838 0
-1835 -77 1839 0
-1835 -78 1837 0
-1836 -76 1839 0
-1836 -77 1837 0
-1836 -78 1838 0
1840 1841 1842 0
-1837 -88 1840 0
-1837 -89 1841 0
-1837 -90 1842 0
-1838 -88 1841 0
-1838 -89 1842 0
-1838 -90 1840 0
-1839 -88 1842 0
-1839 -89 1840 0
-1839 -90 1841 0
1843 1844 1845 0
-1840 -115 1843 0
-1840 -116 1844 0
-1840 -117 1845 0
-1841 -115 1844 0
-1841 -116 1845 0
-1841 -117 1843 0
-1842 -115 1845 0
-1842 -116 1843 0
-1842 -117 1844 0
1846 1847 1848 0
-31 -40 1846 0
-31 -41 1847 0
-31 -42 1848 0
-32 -40 1847 0
-32 -41 1848 0
-32 -42 1846 0
-33 -40 1848 0
-33 -41 1846 0
-33 -42 1847 0
1849 1850 1851 0
-1846 -43 1849 0
-1846 -44 1850 0
-1846 -45 1851 0
-1847 -43 1850 0
-1847 -44 1851 0
-1847 -45 1849 0
-1848 -43 1851 0
-1848 -44 1849 0
-1848 -45 1850 0
1852 1853 1854 0
-1849 -79 1852 0
-1849 -80 1853 0
-1849 -81 1854 0
-1850 -79 1853 0
-1850 -80 1854 0
-1850 -81 1852 0
-1851 -79 1854 0
-1851 -80 1852 0
-1851 -81 1853 0
1855 1856 1857 0
-1852 -82 1855 0
-1852 -83 1856 0
-1852 -84 1857 0
-1853 -82 1856 0
-1853 -83 1857 0
-1853 -84 1855 0
-1854 -82 1857 0
-1854 -83 1855 0
-1854 -84 1856 0
1858 1859 1860 0
-1855 -118 1858 0
-1855 -119 1859 0
-1855 -120 1860 0
-1856 -118 1859 0
-1856 -119 1860 0
-1856 -120 1858 0
-1857 -118 1860 0
-1857 -119 1858 0
-1857 -120 1859 0
1861 1862 1863 0
-31 -40 1861 0
-31 -41 1862 0
-31 -42 1863 0
-32 -40 1862 0
-32 -41 1863 0
-32 -42 1861 0
-33 -40 1863 0
-33 -41 1861 0
-33 -42 1862 0
1864 1865 1866 0
-1861 -46 1864 0
-1861 -47 1865 0
-1861 -48 1866 0
-1862 -46 1865 0
-1862 -47 1866 0
-1862 -48 1864 0
-1863 -46 1866 0
-1863 -47 1864 0
-1863 -48 1865 0
1867 1868 1869 0
-1864 -79 1867 0
-1864 -80 1868 0
-1864 -81 1869 0
-1865 -79 1868 0
-1865 -80 1869 0
-1865 -81 1867 0
-1866 -79 1869 0
-1866 -80 1867 0
-1866 -81 1868 0
1870 1871 1872 0
-1867 -85 1870 0
-1867 -86 1871 0
-1867 -87 1872 0
-1868 -85 1871 0
-1868 -86 1872 0
-1868 -87 1870 0
-1869 -85 1872 0
-1869 -86 1870 0
-1869 -87 1871 0
1873 1874 1875 0
-1870 -121 1873 0
-1870 -122 1874 0
-1870 -123 1875 0
-1871 -121 1874 0
-1871 -122 1875 0
-1871 -123 1873 0
-1872 -121 1875 0
-1872 -122 1873 0
-1872 -123 1874 0
1876 1877 1878 0
-31 -40 1876 0
-31 -41 1877 0
-31 -42 1878 0
-32 -40 1877 0
-32 -41 1878 0
-32 -42 1876 0
-33 -40 1878 0
-33 -41 1876 0
-33 -42 1877 0
1879 1880 1881 0
-1876 -49 1879 0
-1876 -50 1880 0
-1876 -51 1881 0
-1877 -49 1880 0
-1877 -50 1881 0
-1877 -51 1879 0
-1878 -49 1881 0
-1878 -50 1879 0
-1878 -51 1880 0
1882 1883 1884 0
-1879 -79 1882 0
-1879 -80 1883 0
-1879 -81 1884 0
-1880 -79 1883 0
-1880 -80 1884 0
-1880 -81 1882 0
-1881 -79 1884 0
-1881 -80 1882 0
-1881 -81 1883 0
1885 1886 1887 0
-1882 -88 1885 0
-1882 -89 1886 0
-1882 -90 1887 0
-1883 -88 1886 0
-1883 -89 1887 0
-1883 -90 1885 0
-1884 -88 1887 0
-1884 -89 1885 0
-1884 -90 1886 0
1888 1889 1890 0
-1885 -124 1888 0
-1885 -125 1889 0
-1885 -126 1890 0
-1886 -124 1889 0
-1886 -125 1890 0
-1886 -126 1888 0
-1887 -124 1890 0
-1887 -125 1888 0
-1887 -126 1889 0
1891 1892 1893 0
-31 -43 1891 0
-31 -44 1892 0
-31 -45 1893 0
-32 -43 1892 0
-32 -44 1893 0
-32 -45 1891 0
-33 -43 1893 0
-33 -44 1891 0
-33 -45 1892 0
1894 1895 1896 0
-1891 -46 1894 0
-1891 -47 1895 0
-1891 -48 1896 0
-1892 -46 1895 0
-1892 -47 1896 0
-1892 -48 1894 0
-1893 -46 1896 0
-1893 -47 1894 0
-1893 -48 1895 0
1897 1898 1899 0
-1894 -82 1897 0
-1894 -83 1898 0
-1894 -84 1899 0
-1895 -82 1898 0
-1895 -83 1899 0
-1895 -84 1897 0
-1896 -82 1899 0
-1896 -83 1897 0
-1896 -84 1898 0
1900 1901 1902 0
-1897 -85 1900 0
-1897 -86 1901 0
-1897 -87 1902 0
-1898 -85 1901 0
-1898 -86 1902 0
-1898 -87 1900 0
-1899 -85 1902 0
-1899 -86 1900 0
-1899 -87 1901 0
1903 1904 1905 0
-1900 -127 1903 0
-1900 -128 1904 0
-1900 -129 1905 0
-1901 -127 1904 0
-1901 -128 1905 0
-1901 -129 1903 0
-1902 -127 1905 0
-1902 -128 1903 0
-1902 -129 1904 0
1906 1907 1908 0
-31 -43 1906 0
-31 -44 1907 0
-31 -45 1908 0
-32 -43 1907 0
-32 -44 1908 0
-32 -45 1906 0
-33 -43 1908 0
-33 -44 1906 0
-33 -45 1907 0
1909 1910 1911 0
-1906 -49 1909 0
-1906 -50 1910 0
-1906 -51 1911 0
-1907 -49 1910 0
-1907 -50 1911 0
-1907 -51 1909 0
-1908 -49 1911 0
-1908 -50 1909 0
-1908 -51 1910 0
1912 1913 1914 0
-1909 -82 1912 0
-1909 -83 1913 0
-1909 -84 1914 0
-1910 -82 1913 0
-1910 -83 1914 0
-1910 -84 1912 0
-1911 -82 1914 0
-1911 -83 1912 0
-1911 -84 1913 0
1915 1916 1917 0
-1912 -88 1915 0
-1912 -89 1916 0
-1912 -90 1917 0
-1913 -88 1916 0
-1913 -89 1917 0
-1913 -90 1915 0
-1914 -88 1917 0
-1914 -89 1915 0
-1914 -90 1916 0
1918 1919 1920 0
-1915 -130 1918 0
-1915 -131 1919 0
-1915 -132 1920 0
-1916 -130 1919 0
-1916 -131 1920 0
-1916 -132 1918 0
-1917 -130 1920 0
-1917 -131 1918 0
-1917 -132 1919 0
1921 1922 1923 0
-31 -46 1921 0
-31 -47 1922 0
-31 -48 1923 0
-32 -46 1922 0
-32 -47 1923 0
-32 -48 1921 0
-33 -46 1923 0
-33 -47 1921 0
-33 -48 1922 0
1924 1925 1926 0
-1921 -49 1924 0
-1921 -50 1925 0
-1921 -51 1926 0
-1922 -49 1925 0
-1922 -50 1926 0
-1922 -51 1924 0
-1923 -49 1926 0
-1923 -50 1924 0
-1923 -51 1925 0
1927 1928 1929 0
-1924 -85 1927 0
-1924 -86 1928 0
-1924 -87 1929 0
-1925 -85 1928 0
-1925 -86 1929 0
-1925 -87 1927 0
-1926 -85 1929 0
-1926 -86 1927 0
-1926 -87 1928 0
1930 1931 1932 0
-1927 -88 1930 0
-1927 -89 1931 0
-1927 -90 1932 0
-1928 -88 1931 0
-1928 -89 1932 0
-1928 -90 1930 0
-1929 -88 1932 0
-1929 -89 1930 0
-1929 -90 1931 0
1933 1934 1935 0
-1930 -133 1933 0
-1930 -134 1934 0
-1930 -135 1935 0
-1931 -133 1934 0
-1931 -134 1935 0
-1931 -135 1933 0
-1932 -133 1935 0
-1932 -134 1933 0
-1932 -135 1934 0
1936 1937 1938 0
-34 -37 1936 0
-34 -38 1937 0
-34 -39 1938 0
-35 -37 1937 0
-35 -38 1938 0
-35 -39 1936 0
-36 -37 1938 0
-36 -38 1936 0
-36 -39 1937 0
1939 1940 1941 0
-1936 -40 1939 0
-1936 -41 1940 0
-1936 -42 1941 0
-1937 -40 1940 0
-1937 -41 1941 0
-1937 -42 1939 0
-1938 -40 1941 0
-1938 -41 1939 0
-1938 -42 1940 0
1942 1943 1944 0
-1939 -91 1942 0
-1939 -92 1943 0
-1939 -93 1944 0
-1940 -91 1943 0
-1940 -92 1944 0
-1940 -93 1942 0
-1941 -91 1944 0
-1941 -92 1942 0
-1941 -93 1943 0
1945 1946 1947 0
-1942 -94 1945 0
-1942 -95 1946 0
-1942 -96 1947 0
-1943 -94 1946 0
-1943 -95 1947 0
-1943 -96 1945 0
-1944 -94 1947 0
-1944 -95 1945 0
-1944 -96 1946 0
1948 1949 1950 0
-1945 -106 1948 0
-1945 -107 1949 0
-1945 -108 1950 0
-1946 -106 1949 0
-1946 -107 1950 0
-1946 -108 1948 0
-1947 -106 1950 0
-1947 -107 1948 0
-1947 -108 1949 0
1951 1952 1953 0
-34 -37 1951 0
-34 -38 1952 0
-34 -39 1953 0
-35 -37 1952 0
-35 -38 1953 0
-35 -39 1951 0
-36 -37 1953 0
-36 -38 1951 0
-36 -39 1952 0
1954 1955 1956 0
-1951 -43 1954 0
-1951 -44 1955 0
-1951 -45 1956 0
-1952 -43 1955 0
-1952 -44 1956 0
-1952 -45 1954 0
-1953 -43 1956 0
-1953 -44 1954 0
-1953 -45 1955 0
1957 1958 1959 0
-1954 -91 1957 0
-1954 -92 1958 0
-1954 -93 1959 0
-1955 -91 1958 0
-1955 -92 1959 0
-1955 -93 1957 0
-1956 -91 1959 0
-1956 -92 1957 0
-1956 -93 1958 0
1960 1961 1962 0
-1957 -97 1960 0
-1957 -98 1961 0
-1957 -99 1962 0
-1958 -97 1961 0
-1958 -98 1962 0
-1958 -99 1960 0
-1959 -97 1962 0
-1959 -98 1960 0
-1959 -99 1961 0
1963 1964 1965 0
-1960 -109 1963 0
-1960 -110 1964 0
-1960 -111 1965 0
-1961 -109 1964 0
-1961 -110 1965 0
-1961 -111 1963 0
-1962 -109 1965 0
-1962 -110 1963 0
-1962 -111 1964 0
1966 1967 1968 0
-34 -37 1966 0
-34 -38 1967 0
-34 -39 1968 0
-35 -37 1967 0
-35 -38 1968 0
-35 -39 1966 0
-36 -37 1968 0
-36 -38 1966 0
-36 -39 1967 0
1969 1970 1971 0
-1966 -46 1969 0
-1966 -47 1970 0
-1966 -48 1971 0
-1967 -46 1970 0
-1967 -47 1971 0
-1967 -48 1969 0
-1968 -46 1971 0
-1968 -47 1969 0
-1968 -48 1970 0
1972 1973 1974 0
-1969 -91 1972 0
-1969 -92 1973 0
-1969 -93 1974 0
-1970 -91 1973 0
-1970 -92 1974 0
-1970 -93 1972 0
-1971 -91 1974 0
-1971 -92 1972 0
-1971 -93 1973 0
1975 1976 1977 0
-1972 -100 1975 0
-1972 -101 1976 0
-1972 -102 1977 0
-1973 -100 1976 0
-1973 -101 1977 0
-1973 -102 1975 0
-1974 -100 1977 0
-1974 -101 1975 0
-1974 -102 1976 0
1978 1979 1980 0
-1975 -112 1978 0
-1975 -113 1979 0
-1975 -114 1980 0
-1976 -112 1979 0
-1976 -113 1980 0
-1976 -114 1978 0
-1977 -112 1980 0
-1977 -113 1978 0
-1977 -114 1979 0
1981 1982 1983 0
-34 -37 1981 0
-34 -38 1982 0
-34 -39 1983 0
-35 -37 1982 0
-35 -38 1983 0
-35 -39 1981 0
-36 -37 1983 0
-36 -38 1981 0
-36 -39 1982 0
1984 1985 1986 0
-1981 -49 1984 0
-1981 -50 1985 0
-1981 -51 1986 0
-1982 -49 1985 0
-1982 -50 1986 0
-1982 -51 1984 0
-1983 -49 1986 0
-1983 -50 1984 0
-1983 -51 1985 0
1987 1988 1989 0
-1984 -91 1987 0
-1984 -92 1988 0
-1984 -93 1989 0
-1985 -91 1988 0
-1985 -92 1989 0
-1985 -93 1987 0
-1986 -91 1989 0
-1986 -92 1987 0
-1986 -93 1988 0
1990 1991 1992 0
-1987 -103 1990 0
-1987 -104 1991 0
-1987 -105 1992 0
-1988 -103 1991 0
-1988 -104 1992 0
-1988 -105 1990 0
-1989 -103 1992 0
-1989 -104 1990 0
-1989 -105 1991 0
1993 1994 1995 0
-1990 -115 1993 0
-1990 -116 1994 0
-1990 -117 1995 0
-1991 -115 1994 0
-1991 -116 1995 0
-1991 -117 1993 0
-1992 -115 1995 0
-1992 -116 1993 0
-1992 -117 1994 0
1996 1997 1998 0
-34 -40 1996 0
-34 -41 1997 0
-34 -42 1998 0
-35 -40 1997 0
-35 -41 1998 0
-35 -42 1996 0
-36 -40 1998 0
-36 -41 1996 0
-36 -42 1997 0
1999 2000 2001 0
-1996 -43 1999 0
-1996 -44 2000 0
-1996 -45 2001 0
-1997 -43 2000 0
-1997 -44 2001 0
-1997 -45 1999 0
-1998 -43 2001 0
-1998 -44 1999 0
-1998 -45 2000 0
2002 2003 2004 0
-1999 -94 2002 0
-1999 -95 2003 0
-1999 -96 2004 0
-2000 -94 2003 0
-2000 -95 2004 0
-2000 -96 2002 0
-2001 -94 2004 0
-2001 -95 2002 0
-2001 -96 2003 0
2005 2006 2007 0
-2002 -97 2005 0
-2002 -98 2006 0
-2002 -99 2007 0
-2003 -97 2006 0
-2003 -98 2007 0
-2003 -99 2005 0
-2004 -97 2007 0
-2004 -98 2005 0
-2004 -99 2006 0
2008 2009 2010 0
-2005 -118 2008 0
-2005 -119 2009 0
-2005 -120 2010 0
-2006 -118 2009 0
-2006 -119 2010 0
-2006 -120 2008 0
-2007 -118 2010 0
-2007 -119 2008 0
-2007 -120 2009 0
2011 2012 2013 0
-34 -40 2011 0
-34 -41 2012 0
-34 -42 2013 0
-35 -40 2012 0
-35 -41 2013 0
-35 -42 2011 0
-36 -40 2013 0
-36 -41 2011 0
-36 -42 2012 0
2014 2015 2016 0
-2011 -46 2014 0
-2011 -47 2015 0
-2011 -48 2016 0
-2012 -46 2015 0
-2012 -47 2016 0
-2012 -48 2014 0
-2013 -46 2016 0
-2013 -47 2014 0
-2013 -48 2015 0
2017 2018 2019 0
-2014 -94 2017 0
-2014 -95 2018 0
-2014 -96 2019 0
-2015 -94 2018 0
-2015 -95 2019 0
-2015 -96 2017 0
-2016 -94 2019 0
-2016 -95 2017 0
-2016 -96 2018 0
2020 2021 2022 0
-2017 -100 2020 0
-2017 -101 2021 0
-2017 -102 2022 0
-2018 -100 2021 0
-2018 -101 2022 0
-2018 -102 2020 0
-2019 -100 2022 0
-2019 -101 2020 0
-2019 -102 2021 0
2023 2024 2025 0
-2020 -121 2023 0
-2020 -122 2024 0
-2020 -123 2025 0
-2021 -121 2024 0
-2021 -122 2025 0
-2021 -123 2023 0
-2022 -121 2025 0
-2022 -122 2023 0
-2022 -123 2024 0
2026 2027 2028 0
-34 -40 2026 0
-34 -41 2027 0
-34 -42 2028 0
-35 -40 2027 0
-35 -41 2028 0
-35 -42 2026 0
-36 -40 2028 0
-36 -41 2026 0
-36 -42 2027 0
2029 2030 2031 0
-2026 -49 2029 0
-2026 -50 2030 0
-2026 -51 2031 0
-2027 -49 2030 0
-2027 -50 2031 0
-2027 -51 2029 0
-2028 -49 2031 0
-2028 -50 2029 0
-2028 -51 2030 0
2032 2033 2034 0
-2029 -94 2032 0
-2029 -95 2033 0
-2029 -96 2034 0
-2030 -94 2033 0
-2030 -95 2034 0
-2030 -96 2032 0
-2031 -94 2034 0
-2031 -95 2032 0
-2031 -96 2033 0
2035 2036 2037 0
-2032 -103 2035 0
-2032 -104 2036 0
-2032 -105 2037 0
-2033 -103 2036 0
-2033 -104 2037 0
-2033 -105 2035 0
-2034 -103 2037 0
-2034 -104 2035 0
-2034 -105 2036 0
2038 2039 2040 0
-2035 -124 2038 0
-2035 -125 2039 0
-2035 -126 2040 0
-2036 -124 2039 0
-2036 -125 2040 0
-2036 -126 2038 0
-2037 -124 2040 0
-2037 -125 2038 0
-2037 -126 2039 0
2041 2042 2043 0
-34 -43 2041 0
-34 -44 2042 0
-34 -45 2043 0
-35 -43 2042 0
-35 -44 2043 0
-35 -45 2041 0
-36 -43 2043 0
-36 -44 2041 0
-36 -45 2042 0
2044 2045 2046 0
-2041 -46 2044 0
-2041 -47 2045 0
-2041 -48 2046 0
-2042 -46 2045 0
-2042 -47 2046 0
-2042 -48 2044 0
-2043 -46 2046 0
-2043 -47 2044 0
-2043 -48 2045 0
2047 2048 2049 0
-2044 -97 2047 0
-2044 -98 2048 0
-2044 -99 2049 0
-2045 -97 2048 0
-2045 -98 2049 0
-2045 -99 2047 0
-2046 -97 2049 0
-2046 -98 2047 0
-2046 -99 2048 0
2050 2051 2052 0
-2047 -100 2050 0
-2047 -101 2051 0
-2047 -102 2052 0
-2048 -100 2051 0
-2048 -101 2052 0
-2048 -102 2050 0
-2049 -100 2052 0
-2049 -101 2050 0
-2049 -102 2051 0
2053 2054 2055 0
-2050 -127 2053 0
-2050 -128 2054 0
-2050 -129 2055 0
-2051 -127 2054 0
-2051 -128 2055 0
-2051 -129 2053 0
-2052 -127 2055 0
-2052 -128 2053 0
-2052 -129 2054 0
2056 2057 2058 0
-34 -43 2056 0
-34 -44 2057 0
-34 -45 2058 0
-35 -43 2057 0
-35 -44 2058 0
-35 -45 2056 0
-36 -43 2058 0
-36 -44 2056 0
-36 -45 2057 0
2059 2060 2061 0
-2056 -49 2059 0
-2056 -50 2060 0
-2056 -51 2061 0
-2057 -49 2060 0
-2057 -50 2061 0
-2057 -51 2059 0
-2058 -49 2061 0
-2058 -50 2059 0
-2058 -51 2060 0
2062 2063 2064 0
-2059 -97 2062 0
-2059 -98 2063 0
-2059 -99 2064 0
-2060 -97 2063 0
-2060 -98 2064 0
-2060 -99 2062 0
-2061 -97 2064 0
-2061 -98 2062 0
-2061 -99 2063 0
2065 2066 2067 0
-2062 -103 2065 0
-2062 -104 2066 0
-2062 -105 2067 0
-2063 -103 2066 0
-2063 -104 2067 0
-2063 -105 2065 0
-2064 -103 2067 0
-2064 -104 2065 0
-2064 -105 2066 0
2068 2069 2070 0
-2065 -130 2068 0
-2065 -131 2069 0
-2065 -132 2070 0
-2066 -130 2069 0
-2066 -131 2070 0
-2066 -132 2068 0
-2067 -130 2070 0
-2067 -131 2068 0
-2067 -132 2069 0
2071 2072 2073 0
-34 -46 2071 0
-34 -47 2072 0
-34 -48 2073 0
-35 -46 2072 0
-35 -47 2073 0
-35 -48 2071 0
-36 -46 2073 0
-36 -47 2071 0
-36 -48 2072 0
2074 2075 2076 0
-2071 -49 2074 0
-2071 -50 2075 0
-2071 -51 2076 0
-2072 -49 2075 0
-2072 -50 2076 0
-2072 -51 2074 0
-2073 -49 2076 0
-2073 -50 2074 0
-2073 -51 2075 0
2077 2078 2079 0
-2074 -100 2077 0
-2074 -101 2078 0
-2074 -102 2079 0
-2075 -100 2078 0
-2075 -101 2079 0
-2075 -102 2077 0
-2076 -100 2079 0
-2076 -101 2077 0
-2076 -102 2078 0
2080 2081 2082 0
-2077 -103 2080 0
-2077 -104 2081 0
-2077 -105 2082 0
-2078 -103 2081 0
-2078 -104 2082 0
-2078 -105 2080 0
-2079 -103 2082 0
-2079 -104 2080 0
-2079 -105 2081 0
2083 2084 2085 0
-2080 -133 2083 0
-2080 -134 2084 0
-2080 -135 2085 0
-2081 -133 2084 0
-2081 -134 2085 0
-2081 -135 2083 0
-2082 -133 2085 0
-2082 -134 2083 0
-2082 -135 2084 0
2086 2087 2088 0
-37 -40 2086 0
-37 -41 2087 0
-37 -42 2088 0
-38 -40 2087 0
-38 -41 2088 0
-38 -42 2086 0
-39 -40 2088 0
-39 -41 2086 0
-39 -42 2087 0
2089 2090 2091 0
-2086 -43 2089 0
-2086 -44 2090 0
-2086 -45 2091 0
-2087 -43 2090 0
-2087 -44 2091 0
-2087 -45 2089 0
-2088 -43 2091 0
-2088 -44 2089 0
-2088 -45 2090 0
2092 2093 2094 0
-2089 -106 2092 0
-2089 -107 2093 0
-2089 -108 2094 0
-2090 -106 2093 0
-2090 -107 2094 0
-2090 -108 2092 0
-2091 -106 2094 0
-2091 -107 2092 0
-2091 -108 2093 0
2095 2096 2097 0
-2092 -109 2095 0
-2092 -110 2096 0
-2092 -111 2097 0
-2093 -109 2096 0
-2093 -110 2097 0
-2093 -111 2095 0
-2094 -109 2097 0
-2094 -110 2095 0
-2094 -111 2096 0
2098 2099 2100 0
-2095 -118 2098 0
-2095 -119 2099 0
-2095 -120 2100 0
-2096 -118 2099 0
-2096 -119 2100 0
-2096 -120 2098 0
-2097 -118 2100 0
-2097 -119 2098 0
-2097 -120 2099 0
2101 2102 2103 0
-37 -40 2101 0
-37 -41 2102 0
-37 -42 2103 0
-38 -40 2102 0
-38 -41 2103 0
-38 -42 2101 0
-39 -40 2103 0
-39 -41 2101 0
-39 -42 2102 0
2104 2105 2106 0
-2101 -46 2104 0
-2101 -47 2105 0
-2101 -48 2106 0
-2102 -46 2105 0
-2102 -47 2106 0
-2102 -48 2104 0
-2103 -46 2106 0
-2103 -47 2104 0
-2103 -48 2105 0
2107 2108 2109 0
-2104 -106 2107 0
-2104 -107 2108 0
-2104 -108 2109 0
-2105 -106 2108 0
-2105 -107 2109 0
-2105 -108 2107 0
-2106 -106 2109 0
-2106 -107 2107 0
-2106 -108 2108 0
2110 2111 2112 0
-2107 -112 2110 0
-2107 -113 2111 0
-2107 -114 2112 0
-2108 -112 2111 0
-2108 -113 2112 0
-2108 -114 2110 0
-2109 -112 2112 0
-2109 -113 2110 0
-2109 -114 2111 0
2113 2114 2115 0
-2110 -121 2113 0
-2110 -122 2114 0
-2110 -123 2115 0
-2111 -121 2114 0
-2111 -122 2115 0
-2111 -123 2113 0
-2112 -121 2115 0
-2112 -122 2113 0
-2112 -123 2114 0
2116 2117 2118 0
-37 -40 2116 0
-37 -41 2117 0
-37 -42 2118 0
-38 -40 2117 0
-38 -41 2118 0
-38 -42 2116 0
-39 -40 2118 0
-39 -41 2116 0
-39 -42 2117 0
2119 2120 2121 0
-2116 -49 2119 0
-2116 -50 2120 0
-2116 -51 2121 0
-2117 -49 2120 0
-2117 -50 2121 0
-2117 -51 2119 0
-2118 -49 2121 0
-2118 -50 2119 0
-2118 -51 2120 0
2122 2123 2124 0
-2119 -106 2122 0
-2119 -107 2123 0
-2119 -108 2124 0
-2120 -106 2123 0
-2120 -107 2124 0
-2120 -108 2122 0
-2121 -106 2124 0
-2121 -107 2122 0
-2121 -108 2123 0
2125 2126 2127 0
-2122 -115 2125 0
-2122 -116 2126 0
-2122 -117 2127 0
-2123 -115 2126 0
-2123 -116 2127 0
-2123 -117 2125 0
-2124 -115 2127 0
-2124 -116 2125 0
-2124 -117 2126 0
2128 2129 2130 0
-2125 -124 2128 0
-2125 -125 2129 0
-2125 -126 2130 0
-2126 -124 2129 0
-2126 -125 2130 0
-2126 -126 2128 0
-2127 -124 2130 0
-2127 -125 2128 0
-2127 -126 2129 0
2131 2132 2133 0
-37 -43 2131 0
-37 -44 2132 0
-37 -45 2133 0
-38 -43 2132 0
-38 -44 2133 0
-38 -45 2131 0
-39 -43 2133 0
-39 -44 2131 0
-39 -45 2132 0
2134 2135 2136 0
-2131 -46 2134 0
-2131 -47 2135 0
-2131 -48 2136 0
-2132 -46 2135 0
-2132 -47 2136 0
-2132 -48 2134 0
-2133 -46 2136 0
-2133 -47 2134 0
-2133 -48 2135 0
2137 2138 2139 0
-2134 -109 2137 0
-2134 -110 2138 0
-2134 -111 2139 0
-2135 -109 2138 0
-2135 -110 2139 0
-2135 -111 2137 0
-2136 -109 2139 0
-2136 -110 2137 0
-2136 -111 2138 0
2140 2141 2142 0
-2137 -112 2140 0
-2137 -113 2141 0
-2137 -114 2142 0
-2138 -112 2141 0
-2138 -113 2142 0
-2138 -114 2140 0
-2139 -112 2142 0
-2139 -113 2140 0
-2139 -114 2141 0
2143 2144 2145 0
-2140 -127 2143 0
-2140 -128 2144 0
-2140 -129 2145 0
-2141 -127 2144 0
-2141 -128 2145 0
-2141 -129 2143 0
-2142 -127 2145 0
-2142 -128 2143 0
-2142 -129 2144 0
2146 2147 2148 0
-37 -43 2146 0
-37 -44 2147 0
-37 -45 2148 0
-38 -43 2147 0
-38 -44 2148 0
-38 -45 2146 0
-39 -43 2148 0
-39 -44 2146 0
-39 -45 2147 0
2149 2150 2151 0
-2146 -49 2149 0
-2146 -50 2150 0
-2146 -51 2151 0
-2147 -49 2150 0
-2147 -50 2151 0
-2147 -51 2149 0
-2148 -49 2151 0
-2148 -50 2149 0
-2148 -51 2150 0
2152 2153 2154 0
-2149 -109 2152 0
-2149 -110 2153 0
-2149 -111 2154 0
-2150 -109 2153 0
-2150 -110 2154 0
-2150 -111 2152 0
-2151 -109 2154 0
-2151 -110 2152 0
-2151 -111 2153 0
2155 2156 2157 0
-2152 -115 2155 0
-2152 -116 2156 0
-2152 -117 2157 0
-2153 -115 2156 0
-2153 -116 2157 0
-2153 -117 2155 0
-2154 -115 2157 0
-2154 -116 2155 0
-2154 -117 2156 0
2158 2159 2160 0
-2155 -130 2158 0
-2155 -131 2159 0
-2155 -132 2160 0
-2156 -130 2159 0
-2156 -131 2160 0
-2156 -132 2158 0
-2157 -130 2160 0
-2157 -131 2158 0
-2157 -132 2159 0
2161 2162 2163 0
-37 -46 2161 0
-37 -47 2162 0
-37 -48 2163 0
-38 -46 2162 0
-38 -47 2163 0
-38 -48 2161 0
-39 -46 2163 0
-39 -47 2161 0
-39 -48 2162 0
2164 2165 2166 0
-2161 -49 2164 0
-2161 -50 2165 0
-2161 -51 2166 0
-2162 -49 2165 0
-2162 -50 2166 0
-2162 -51 2164 0
-2163 -49 2166 0
-2163 -50 2164 0
-2163 -51 2165 0
2167 2168 2169 0
-2164 -112 2167 0
-2164 -113 2168 0
-2164 -114 2169 0
-2165 -112 2168 0
-2165 -113 2169 0
-2165 -114 2167 0
-2166 -112 2169 0
-2166 -113 2167 0
-2166 -114 2168 0
2170 2171 2172 0
-2167 -115 2170 0
-2167 -116 2171 0
-2167 -117 2172 0
-2168 -115 2171 0
-2168 -116 2172 0
-2168 -117 2170 0
-2169 -115 2172 0
-2169 -116 2170 0
-2169 -117 2171 0
2173 2174 2175 0
-2170 -133 2173 0
-2170 -134 2174 0
-2170 -135 2175 0
-2171 -133 2174 0
-2171 -134 2175 0
-2171 -135 2173 0
-2172 -133 2175 0
-2172 -134 2173 0
-2172 -135 2174 0
2176 2177 2178 0
-40 -43 2176 0
-40 -44 2177 0
-40 -45 2178 0
-41 -43 2177 0
-41 -44 2178 0
-41 -45 2176 0
-42 -43 2178 0
-42 -44 2176 0
-42 -45 2177 0
2179 2180 2181 0
-2176 -46 2179 0
-2176 -47 2180 0
-2176 -48 2181 0
-2177 -46 2180 0
-2177 -47 2181 0
-2177 -48 2179 0
-2178 -46 2181 0
-2178 -47 2179 0
-2178 -48 2180 0
2182 2183 2184 0
-2179 -118 2182 0
-2179 -119 2183 0
-2179 -120 2184 0
-2180 -118 2183 0
-2180 -119 2184 0
-2180 -120 2182 0
-2181 -118 2184 0
-2181 -119 2182 0
-2181 -120 2183 0
2185 2186 2187 0
-2182 -121 2185 0
-2182 -122 2186 0
-2182 -123 2187 0
-2183 -121 2186 0
-2183 -122 2187 0
-2183 -123 2185 0
-2184 -121 2187 0
-2184 -122 2185 0
-2184 -123 2186 0
2188 2189 2190 0
-2185 -127 2188 0
-2185 -128 2189 0
-2185 -129 2190 0
-2186 -127 2189 0
-2186 -128 2190 0
-2186 -129 2188 0
-2187 -127 2190 0
-2187 -128 2188 0
-2187 -129 2189 0
2191 2192 2193 0
-40 -43 2191 0
-40 -44 2192 0
-40 -45 2193 0
-41 -43 2192 0
-41 -44 2193 0
-41 -45 2191 0
-42 -43 2193 0
-42 -44 2191 0
-42 -45 2192 0
2194 2195 2196 0
-2191 -49 2194 0
-2191 -50 2195 0
-2191 -51 2196 0
-2192 -49 2195 0
-2192 -50 2196 0
-2192 -51 2194 0
-2193 -49 2196 0
-2193 -50 2194 0
-2193 -51 2195 0
2197 2198 2199 0
-2194 -118 2197 0
-2194 -119 2198 0
-2194 -120 2199 0
-2195 -118 2198 0
-2195 -119 2199 0
-2195 -120 2197 0
-2196 -118 2199 0
-2196 -119 2197 0
-2196 -120 2198 0
2200 2201 2202 0
-2197 -124 2200 0
-2197 -125 2201 0
-2197 -126 2202 0
-2198 -124 2201 0
-2198 -125 2202 0
-2198 -126 2200 0
-2199 -124 2202 0
-2199 -125 2200 0
-2199 -126 2201 0
2203 2204 2205 0
-2200 -130 2203 0
-2200 -131 2204 0
-2200 -132 2205 0
-2201 -130 2204 0
-2201 -131 2205 0
-2201 -132 2203 0
-2202 -130 2205 0
-2202 -131 2203 0
-2202 -132 2204 0
2206 2207 2208 0
-40 -46 2206 0
-40 -47 2207 0
-40 -48 2208 0
-41 -46 2207 0
-41 -47 2208 0
-41 -48 2206 0
-42 -46 2208 0
-42 -47 2206 0
-42 -48 2207 0
2209 2210 2211 0
-2206 -49 2209 0
-2206 -50 2210 0
-2206 -51 2211 0
-2207 -49 2210 0
-2207 -50 2211 0
-2207 -51 2209 0
-2208 -49 2211 0
-2208 -50 2209 0
-2208 -51 2210 0
2212 2213 2214 0
-2209 -121 2212 0
-2209 -122 2213 0
-2209 -123 2214 0
-2210 -121 2213 0
-2210 -122 2214 0
-2210 -123 2212 0
-2211 -121 2214 0
-2211 -122 2212 0
-2211 -123 2213 0
2215 2216 2217 0
-2212 -124 2215 0
-2212 -125 2216 0
-2212 -126 2217 0
-2213 -124 2216 0
-2213 -125 2217 0
-2213 -126 2215 0
-2214 -124 2217 0
-2214 -125 2215 0
-2214 -126 2216 0
2218 2219 2220 0
-2215 -133 2218 0
-2215 -134 2219 0
-2215 -135 2220 0
-2216 -133 2219 0
-2216 -134 2220 0
-2216 -135 2218 0
-2217 -133 2220 0
-2217 -134 2218 0
-2217 -135 2219 0
2221 2222 2223 0
-43 -46 2221 0
-43 -47 2222 0
-43 -48 2223 0
-44 -46 2222 0
-44 -47 2223 0
-44 -48 2221 0
-45 -46 2223 0
-45 -47 2221 0
-45 -48 2222 0
2224 2225 2226 0
-2221 -49 2224 0
-2221 -50 2225 0
-2221 -51 2226 0
-2222 -49 2225 0
-2222 -50 2226 0
-2222 -51 2224 0
-2223 -49 2226 0
-2223 -50 2224 0
-2223 -51 2225 0
2227 2228 2229 0
-2224 -127 2227 0
-2224 -128 2228 0
-2224 -129 2229 0
-2225 -127 2228 0
-2225 -128 2229 0
-2225 -129 2227 0
-2226 -127 2229 0
-2226 -128 2227 0
-2226 -129 2228 0
2230 2231 2232 0
-2227 -130 2230 0
-2227 -131 2231 0
-2227 -132 2232 0
-2228 -130 2231 0
-2228 -131 2232 0
-2228 -132 2230 0
-2229 -130 2232 0
-2229 -131 2230 0
-2229 -132 2231 0
2233 2234 2235 0
-2230 -133 2233 0
-2230 -134 2234 0
-2230 -135 2235 0
-2231 -133 2234 0
-2231 -134 2235 0
-2231 -135 2233 0
-2232 -133 2235 0
-2232 -134 2233 0
-2232 -135 2234 0
2236 2237 2238 0
-52 -55 2236 0
-52 -56 2237 0
-52 -57 2238 0
-53 -55 2237 0
-53 -56 2238 0
-53 -57 2236 0
-54 -55 2238 0
-54 -56 2236 0
-54 -57 2237 0
2239 2240 2241 0
-2236 -58 2239 0
-2236 -59 2240 0
-2236 -60 2241 0
-2237 -58 2240 0
-2237 -59 2241 0
-2237 -60 2239 0
-2238 -58 2241 0
-2238 -59 2239 0
-2238 -60 2240 0
2242 2243 2244 0
-2239 -73 2242 0
-2239 -74 2243 0
-2239 -75 2244 0
-2240 -73 2243 0
-2240 -74 2244 0
-2240 -75 2242 0
-2241 -73 2244 0
-2241 -74 2242 0
-2241 -75 2243 0
2245 2246 2247 0
-2242 -76 2245 0
-2242 -77 2246 0
-2242 -78 2247 0
-2243 -76 2246 0
-2243 -77 2247 0
-2243 -78 2245 0
-2244 -76 2247 0
-2244 -77 2245 0
-2244 -78 2246 0
2248 2249 2250 0
-2245 -91 2248 0
-2245 -92 2249 0
-2245 -93 2250 0
-2246 -91 2249 0
-2246 -92 2250 0
-2246 -93 2248 0
-2247 -91 2250 0
-2247 -92 2248 0
-2247 -93 2249 0
2251 2252 2253 0
-52 -55 2251 0
-52 -56 2252 0
-52 -57 2253 0
-53 -55 2252 0
-53 -56 2253 0
-53 -57 2251 0
-54 -55 2253 0
-54 -56 2251 0
-54 -57 2252 0
2254 2255 2256 0
-2251 -61 2254 0
-2251 -62 2255 0
-2251 -63 2256 0
-2252 -61 2255 0
-2252 -62 2256 0
-2252 -63 2254 0
-2253 -61 2256 0
-2253 -62 2254 0
-2253 -63 2255 0
2257 2258 2259 0
-2254 -73 2257 0
-2254 -74 2258 0
-2254 -75 2259 0
-2255 -73 2258 0
-2255 -74 2259 0
-2255 -75 2257 0
-2256 -73 2259 0
-2256 -74 2257 0
-2256 -75 2258 0
2260 2261 2262 0
-2257 -79 2260 0
-2257 -80 2261 0
-2257 -81 2262 0
-2258 -79 2261 0
-2258 -80 2262 0
-2258 -81 2260 0
-2259 -79 2262 0
-2259 -80 2260 0
-2259 -81 2261 0
2263 2264 2265 0
-2260 -94 2263 0
-2260 -95 2264 0
-2260 -96 2265 0
-2261 -94 2264 0
-2261 -95 2265 0
-2261 -96 2263 0
-2262 -94 2265 0
-2262 -95 2263 0
-2262 -96 2264 0
2266 2267 2268 0
-52 -55 2266 0
-52 -56 2267 0
-52 -57 2268 0
-53 -55 2267 0
-53 -56 2268 0
-53 -57 2266 0
-54 -55 2268 0
-54 -56 2266 0
-54 -57 2267 0
2269 2270 2271 0
-2266 -64 2269 0
-2266 -65 2270 0
-2266 -66 2271 0
-2267 -64 2270 0
-2267 -65 2271 0
-2267 -66 2269 0
-2268 -64 2271 0
-2268 -65 2269 0
-2268 -66 2270 0
2272 2273 2274 0
-2269 -73 2272 0
-2269 -74 2273 0
-2269 -75 2274 0
-2270 -73 2273 0
-2270 -74 2274 0
-2270 -75 2272 0
-2271 -73 2274 0
-2271 -74 2272 0
-2271 -75 2273 0
2275 2276 2277 0
-2272 -82 2275 0
-2272 -83 2276 0
-2272 -84 2277 0
-2273 -82 2276 0
-2273 -83 2277 0
-2273 -84 2275 0
-2274 -82 2277 0
-2274 -83 2275 0
-2274 -84 2276 0
2278 2279 2280 0
-2275 -97 2278 0
-2275 -98 2279 0
-2275 -99 2280 0
-2276 -97 2279 0
-2276 -98 2280 0
-2276 -99 2278 0
-2277 -97 2280 0
-2277 -98 2278 0
-2277 -99 2279 0
2281 2282 2283 0
-52 -55 2281 0
-52 -56 2282 0
-52 -57 2283 0
-53 -55 2282 0
-53 -56 2283 0
-53 -57 2281 0
-54 -55 2283 0
-54 -56 2281 0
-54 -57 2282 0
2284 2285 2286 0
-2281 -67 2284 0
-2281 -68 2285 0
-2281 -69 2286 0
-2282 -67 2285 0
-2282 -68 2286 0
-2282 -69 2284 0
-2283 -67 2286 0
-2283 -68 2284 0
-2283 -69 2285 0
2287 2288 2289 0
-2284 -73 2287 0
-2284 -74 2288 0
-2284 -75 2289 0
-2285 -73 2288 0
-2285 -74 2289 0
-2285 -75 2287 0
-2286 -73 2289 0
-2286 -74 2287 0
-2286 -75 2288 0
2290 2291 2292 0
-2287 -85 2290 0
-2287 -86 2291 0
-2287 -87 2292 0
-2288 -85 2291 0
-2288 -86 2292 0
-2288 -87 2290 0
-2289 -85 2292 0
-2289 -86 2290 0
-2289 -87 2291 0
2293 2294 2295 0
-2290 -100 2293 0
-2290 -101 2294 0
-2290 -102 2295 0
-2291 -100 2294 0
-2291 -101 2295 0
-2291 -102 2293 0
-2292 -100 2295 0
-2292 -101 2293 0
-2292 -102 2294 0
2296 2297 2298 0
-52 -55 2296 0
-52 -56 2297 0
-52 -57 2298 0
-53 -55 2297 0
-53 -56 2298 0
-53 -57 2296 0
-54 -55 2298 0
-54 -56 2296 0
-54 -57 2297 0
2299 2300 2301 0
-2296 -70 2299 0
-2296 -71 2300 0
-2296 -72 2301 0
-2297 -70 2300 0
-2297 -71 2301 0
-2297 -72 2299 0
-2298 -70 2301 0
-2298 -71 2299 0
-2298 -72 2300 0
2302 2303 2304 0
-2299 -73 2302 0
-2299 -74 2303 0
-2299 -75 2304 0
-2300 -73 2303 0
-2300 -74 2304 0
-2300 -75 2302 0
-2301 -73 2304 0
-2301 -74 2302 0
-2301 -75 2303 0
2305 2306 2307 0
-2302 -88 2305 0
-2302 -89 2306 0
-2302 -90 2307 0
-2303 -88 2306 0
-2303 -89 2307 0
-2303 -90 2305 0
-2304 -88 2307 0
-2304 -89 2305 0
-2304 -90 2306 0
2308 2309 2310 0
-2305 -103 2308 0
-2305 -104 2309 0
-2305 -105 2310 0
-2306 -103 2309 0
-2306 -104 2310 0
-2306 -105 2308 0
-2307 -103 2310 0
-2307 -104 2308 0
-2307 -105 2309 0
2311 2312 2313 0
-52 -58 2311 0
-52 -59 2312 0
-52 -60 2313 0
-53 -58 2312 0
-53 -59 2313 0
-53 -60 2311 0
-54 -58 2313 0
-54 -59 2311 0
-54 -60 2312 0
2314 2315 2316 0
-2311 -61 2314 0
-2311 -62 2315 0
-2311 -63 2316 0
-2312 -61 2315 0
-2312 -62 2316 0
-2312 -63 2314 0
-2313 -61 2316 0
-2313 -62 2314 0
-2313 -63 2315 0
2317 2318 2319 0
-2314 -76 2317 0
-2314 -77 2318 0
-2314 -78 2319 0
-2315 -76 2318 0
-2315 -77 2319 0
-2315 -78 2317 0
-2316 -76 2319 0
-2316 -77 2317 0
-2316 -78 2318 0
2320 2321 2322 0
-2317 -79 2320 0
-2317 -80 2321 0
-2317 -81 2322 0
-2318 -79 2321 0
-2318 -80 2322 0
-2318 -81 2320 0
-2319 -79 2322 0
-2319 -80 2320 0
-2319 -81 2321 0
2323 2324 2325 0
-2320 -106 2323 0
-2320 -107 2324 0
-2320 -108 2325 0
-2321 -106 2324 0
-2321 -107 2325 0
-2321 -108 2323 0
-2322 -106 2325 0
-2322 -107 2323 0
-2322 -108 2324 0
2326 2327 2328 0
-52 -58 2326 0
-52 -59 2327 0
-52 -60 2328 0
-53 -58 2327 0
-53 -59 2328 0
-53 -60 2326 0
-54 -58 2328 0
-54 -59 2326 0
-54 -60 2327 0
2329 2330 2331 0
-2326 -64 2329 0
-2326 -65 2330 0
-2326 -66 2331 0
-2327 -64 2330 0
-2327 -65 2331 0
-2327 -66 2329 0
-2328 -64 2331 0
-2328 -65 2329 0
-2328 -66 2330 0
2332 2333 2334 0
-2329 -76 2332 0
-2329 -77 2333 0
-2329 -78 2334 0
-2330 -76 2333 0
-2330 -77 2334 0
-2330 -78 2332 0
-2331 -76 2334 0
-2331 -77 2332 0
-2331 -78 2333 0
2335 2336 2337 0
-2332 -82 2335 0
-2332 -83 2336 0
-2332 -84 2337 0
-2333 -82 2336 0
-2333 -83 2337 0
-2333 -84 2335 0
-2334 -82 2337 0
-2334 -83 2335 0
-2334 -84 2336 0
2338 2339 2340 0
-2335 -109 2338 0
-2335 -110 2339 0
-2335 -111 2340 0
-2336 -109 2339 0
-2336 -110 2340 0
-2336 -111 2338 0
-2337 -109 2340 0
-2337 -110 2338 0
-2337 -111 2339 0
2341 2342 2343 0
-52 -58 2341 0
-52 -59 2342 0
-52 -60 2343 0
-53 -58 2342 0
-53 -59 2343 0
-53 -60 2341 0
-54 -58 2343 0
-54 -59 2341 0
-54 -60 2342 0
2344 2345 2346 0
-2341 -67 2344 0
-2341 -68 2345 0
-2341 -69 2346 0
-2342 -67 2345 0
-2342 -68 2346 0
-2342 -69 2344 0
-2343 -67 2346 0
-2343 -68 2344 0
-2343 -69 2345 0
2347 2348 2349 0
-2344 -76 2347 0
-2344 -77 2348 0
-2344 -78 2349 0
-2345 -76 2348 0
-2345 -77 2349 0
-2345 -78 2347 0
-2346 -76 2349 0
-2346 -77 2347 0
-2346 -78 2348 0
2350 2351 2352 0
-2347 -85 2350 0
-2347 -86 2351 0
-2347 -87 2352 0
-2348 -85 2351 0
-2348 -86 2352 0
-2348 -87 2350 0
-2349 -85 2352 0
-2349 -86 2350 0
-2349 -87 2351 0
2353 2354 2355 0
-2350 -112 2353 0
-2350 -113 2354 0
-2350 -114 2355 0
-2351 -112 2354 0
-2351 -113 2355 0
-2351 -114 2353 0
-2352 -112 2355 0
-2352 -113 2353 0
-2352 -114 2354 0
2356 2357 2358 0
-52 -58 2356 0
-52 -59 2357 0
-52 -60 2358 0
-53 -58 2357 0
-53 -59 2358 0
-53 -60 2356 0
-54 -58 2358 0
-54 -59 2356 0
-54 -60 2357 0
2359 2360 2361 0
-2356 -70 2359 0
-2356 -71 2360 0
-2356 -72 2361 0
-2357 -70 2360 0
-2357 -71 2361 0
-2357 -72 2359 0
-2358 -70 2361 0
-2358 -71 2359 0
-2358 -72 2360 0
2362 2363 2364 0
-2359 -76 2362 0
-2359 -77 2363 0
-2359 -78 2364 0
-2360 -76 2363 0
-2360 -77 2364 0
-2360 -78 2362 0
-2361 -76 2364 0
-2361 -77 2362 0
-2361 -78 2363 0
2365 2366 2367 0
-2362 -88 2365 0
-2362 -89 2366 0
-2362 -90 2367 0
-2363 -88 2366 0
-2363 -89 2367 0
-2363 -90 2365 0
-2364 -88 2367 0
-2364 -89 2365 0
-2364 -90 2366 0
2368 2369 2370 0
-2365 -115 2368 0
-2365 -116 2369 0
-2365 -117 2370 0
-2366 -115 2369 0
-2366 -116 2370 0
-2366 -117 2368 0
-2367 -115 2370 0
-2367 -116 2368 0
-2367 -117 2369 0
2371 2372 2373 0
-52 -61 2371 0
-52 -62 2372 0
-52 -63 2373 0
-53 -61 2372 0
-53 -62 2373 0
-53 -63 2371 0
-54 -61 2373 0
-54 -62 2371 0
-54 -63 2372 0
2374 2375 2376 0
-2371 -64 2374 0
-2371 -65 2375 0
-2371 -66 2376 0
-2372 -64 2375 0
-2372 -65 2376 0
-2372 -66 2374 0
-2373 -64 2376 0
-2373 -65 2374 0
-2373 -66 2375 0
2377 2378 2379 0
-2374 -79 2377 0
-2374 -80 2378 0
-2374 -81 2379 0
-2375 -79 2378 0
-2375 -80 2379 0
-2375 -81 2377 0
-2376 -79 2379 0
-2376 -80 2377 0
-2376 -81 2378 0
2380 2381 2382 0
-2377 -82 2380 0
-2377 -83 2381 0
-2377 -84 2382 0
-2378 -82 2381 0
-2378 -83 2382 0
-2378 -84 2380 0
-2379 -82 2382 0
-2379 -83 2380 0
-2379 -84 2381 0
2383 2384 2385 0
-2380 -118 2383 0
-2380 -119 2384 0
-2380 -120 2385 0
-2381 -118 2384 0
-2381 -119 2385 0
-2381 -120 2383 0
-2382 -118 2385 0
-2382 -119 2383 0
-2382 -120 2384 0
2386 2387 2388 0
-52 -61 2386 0
-52 -62 2387 0
-52 -63 2388 0
-53 -61 2387 0
-53 -62 2388 0
-53 -63 2386 0
-54 -61 2388 0
-54 -62 2386 0
-54 -63 2387 0
2389 2390 2391 0
-2386 -67 2389 0
-2386 -68 2390 0
-2386 -69 2391 0
-2387 -67 2390 0
-2387 -68 2391 0
-2387 -69 2389 0
-2388 -67 2391 0
-2388 -68 2389 0
-2388 -69 2390 0
2392 2393 2394 0
-2389 -79 2392 0
-2389 -80 2393 0
-2389 -81 2394 0
-2390 -79 2393 0
-2390 -80 2394 0
-2390 -81 2392 0
-2391 -79 2394 0
-2391 -80 2392 0
-2391 -81 2393 0
2395 2396 2397 0
-2392 -85 2395 0
-2392 -86 2396 0
-2392 -87 2397 0
-2393 -85 2396 0
-2393 -86 2397 0
-2393 -87 2395 0
-2394 -85 2397 0
-2394 -86 2395 0
-2394 -87 2396 0
2398 2399 2400 0
-2395 -121 2398 0
-2395 -122 2399 0
-2395 -123 2400 0
-2396 -121 2399 0
-2396 -122 2400 0
-2396 -123 2398 0
-2397 -121 2400 0
-2397 -122 2398 0
-2397 -123 2399 0
2401 2402 2403 0
-52 -61 2401 0
-52 -62 2402 0
-52 -63 2403 0
-53 -61 2402 0
-53 -62 2403 0
-53 -63 2401 0
-54 -61 2403 0
-54 -62 2401 0
-54 -63 2402 0
2404 2405 2406 0
-2401 -70 2404 0
-2401 -71 2405 0
-2401 -72 2406 0
-2402 -70 2405 0
-2402 -71 2406 0
-2402 -72 2404 0
-2403 -70 2406 0
-2403 -71 2404 0
-2403 -72 2405 0
2407 2408 2409 0
-2404 -79 2407 0
-2404 -80 2408 0
-2404 -81 2409 0
-2405 -79 2408 0
-2405 -80 2409 0
-2405 -81 2407 0
-2406 -79 2409 0
-2406 -80 2407 0
-2406 -81 2408 0
2410 2411 2412 0
-2407 -88 2410 0
-2407 -89 2411 0
-2407 -90 2412 0
-2408 -88 2411 0
-2408 -89 2412 0
-2408 -90 2410 0
-2409 -88 2412 0
-2409 -89 2410 0
-2409 -90 2411 0
2413 2414 2415 0
-2410 -124 2413 0
-2410 -125 2414 0
-2410 -126 2415 0
-2411 -124 2414 0
-2411 -125 2415 0
-2411 -126 2413 0
-2412 -124 2415 0
-2412 -125 2413 0
-2412 -126 2414 0
2416 2417 2418 0
-52 -64 2416 0
-52 -65 2417 0
-52 -66 2418 0
-53 -64 2417 0
-53 -65 2418 0
-53 -66 2416 0
-54 -64 2418 0
-54 -65 2416 0
-54 -66 2417 0
2419 2420 2421 0
-2416 -67 2419 0
-2416 -68 2420 0
-2416 -69 2421 0
-2417 -67 2420 0
-2417 -68 2421 0
-2417 -69 2419 0
-2418 -67 2421 0
-2418 -68 2419 0
-2418 -69 2420 0
2422 2423 2424 0
-2419 -82 2422 0
-2419 -83 2423 0
-2419 -84 2424 0
-2420 -82 2423 0
-2420 -83 2424 0
-2420 -84 2422 0
-2421 -82 2424 0
-2421 -83 2422 0
-2421 -84 2423 0
2425 2426 2427 0
-2422 -85 2425 0
-2422 -86 2426 0
-2422 -87 2427 0
-2423 -85 2426 0
-2423 -86 2427 0
-2423 -87 2425 0
-2424 -85 2427 0
-2424 -86 2425 0
-2424 -87 2426 0
2428 2429 2430 0
-2425 -127 2428 0
-2425 -128 2429 0
-2425 -129 2430 0
-2426 -127 2429 0
-2426 -128 2430 0
-2426 -129 2428 0
-2427 -127 2430 0
-2427 -128 2428 0
-2427 -129 2429 0
2431 2432 2433 0
-52 -64 2431 0
-52 -65 2432 0
-52 -66 2433 0
-53 -64 2432 0
-53 -65 2433 0
-53 -66 2431 0
-54 -64 2433 0
-54 -65 2431 0
-54 -66 2432 0
2434 2435 2436 0
-2431 -70 2434 0
-2431 -71 2435 0
-2431 -72 2436 0
-2432 -70 2435 0
-2432 -71 2436 0
-2432 -72 2434 0
-2433 -70 2436 0
-2433 -71 2434 0
-2433 -72 2435 0
2437 2438 2439 0
-2434 -82 2437 0
-2434 -83 2438 0
-2434 -84 2439 0
-2435 -82 2438 0
-2435 -83 2439 0
-2435 -84 2437 0
-2436 -82 2439 0
-2436 -83 2437 0
-2436 -84 2438 0
2440 2441 2442 0
-2437 -88 2440 0
-2437 -89 2441 0
-2437 -90 2442 0
-2438 -88 2441 0
-2438 -89 2442 0
-2438 -90 2440 0
-2439 -88 2442 0
-2439 -89 2440 0
-2439 -90 2441 0
2443 2444 2445 0
-2440 -130 2443 0
-2440 -131 2444 0
-2440 -132 2445 0
-2441 -130 2444 0
-2441 -131 2445 0
-2441 -132 2443 0
-2442 -130 2445 0
-2442 -131 2443 0
-2442 -132 2444 0
2446 2447 2448 0
-52 -67 2446 0
-52 -68 2447 0
-52 -69 2448 0
-53 -67 2447 0
-53 -68 2448 0
-53 -69 2446 0
-54 -67 2448 0
-54 -68 2446 0
-54 -69 2447 0
2449 2450 2451 0
-2446 -70 2449 0
-2446 -71 2450 0
-2446 -72 2451 0
-2447 -70 2450 0
-2447 -71 2451 0
-2447 -72 2449 0
-2448 -70 2451 0
-2448 -71 2449 0
-2448 -72 2450 0
2452 2453 2454 0
-2449 -85 2452 0
-2449 -86 2453 0
-2449 -87 2454 0
-2450 -85 2453 0
-2450 -86 2454 0
-2450 -87 2452 0
-2451 -85 2454 0
-2451 -86 2452 0
-2451 -87 2453 0
2455 2456 2457 0
-2452 -88 2455 0
-2452 -89 2456 0
-2452 -90 2457 0
-2453 -88 2456 0
-2453 -89 2457 0
-2453 -90 2455 0
-2454 -88 2457 0
-2454 -89 2455 0
-2454 -90 2456 0
2458 2459 2460 0
-2455 -133 2458 0
-2455 -134 2459 0
-2455 -135 2460 0
-2456 -133 2459 0
-2456 -134 2460 0
-2456 -135 2458 0
-2457 -133 2460 0
-2457 -134 2458 0
-2457 -135 2459 0
2461 2462 2463 0
-55 -58 2461 0
-55 -59 2462 0
-55 -60 2463 0
-56 -58 2462 0
-56 -59 2463 0
-56 -60 2461 0
-57 -58 2463 0
-57 -59 2461 0
-57 -60 2462 0
2464 2465 2466 0
-2461 -61 2464 0
-2461 -62 2465 0
-2461 -63 2466 0
-2462 -61 2465 0
-2462 -62 2466 0
-2462 -63 2464 0
-2463 -61 2466 0
-2463 -62 2464 0
-2463 -63 2465 0
2467 2468 2469 0
-2464 -91 2467 0
-2464 -92 2468 0
-2464 -93 2469 0
-2465 -91 2468 0
-2465 -92 2469 0
-2465 -93 2467 0
-2466 -91 2469 0
-2466 -92 2467 0
-2466 -93 2468 0
2470 2471 2472 0
-2467 -94 2470 0
-2467 -95 2471 0
-2467 -96 2472 0
-2468 -94 2471 0
-2468 -95 2472 0
-2468 -96 2470 0
-2469 -94 2472 0
-2469 -95 2470 0
-2469 -96 2471 0
2473 2474 2475 0
-2470 -106 2473 0
-2470 -107 2474 0
-2470 -108 2475 0
-2471 -106 2474 0
-2471 -107 2475 0
-2471 -108 2473 0
-2472 -106 2475 0
-2472 -107 2473 0
-2472 -108 2474 0
2476 2477 2478 0
-55 -58 2476 0
-55 -59 2477 0
-55 -60 2478 0
-56 -58 2477 0
-56 -59 2478 0
-56 -60 2476 0
-57 -58 2478 0
-57 -59 2476 0
-57 -60 2477 0
2479 2480 2481 0
-2476 -64 2479 0
-2476 -65 2480 0
-2476 -66 2481 0
-2477 -64 2480 0
-2477 -65 2481 0
-2477 -66 2479 0
-2478 -64 2481 0
-2478 -65 2479 0
-2478 -66 2480 0
2482 2483 2484 0
-2479 -91 2482 0
-2479 -92 2483 0
-2479 -93 2484 0
-2480 -91 2483 0
-2480 -92 2484 0
-2480 -93 2482 0
-2481 -91 2484 0
-2481 -92 2482 0
-2481 -93 2483 0
2485 2486 2487 0
-2482 -97 2485 0
-2482 -98 2486 0
-2482 -99 2487 0
-2483 -97 2486 0
-2483 -98 2487 0
-2483 -99 2485 0
-2484 -97 2487 0
-2484 -98 2485 0
-2484 -99 2486 0
2488 2489 2490 0
-2485 -109 2488 0
-2485 -110 2489 0
-2485 -111 2490 0
-2486 -109 2489 0
-2486 -110 2490 0
-2486 -111 2488 0
-2487 -109 2490 0
-2487 -110 2488 0
-2487 -111 2489 0
2491 2492 2493 0
-55 -58 2491 0
-55 -59 2492 0
-55 -60 2493 0
-56 -58 2492 0
-56 -59 2493 0
-56 -60 2491 0
-57 -58 2493 0
-57 -59 2491 0
-57 -60 2492 0
2494 2495 2496 0
-2491 -67 2494 0
-2491 -68 2495 0
-2491 -69 2496 0
-2492 -67 2495 0
-2492 -68 2496 0
-2492 -69 2494 0
-2493 -67 2496 0
-2493 -68 2494 0
-2493 -69 2495 0
2497 2498 2499 0
-2494 -91 2497 0
-2494 -92 2498 0
-2494 -93 2499 0
-2495 -91 2498 0
-2495 -92 2499 0
-2495 -93 2497 0
-2496 -91 2499 0
-2496 -92 2497 0
-2496 -93 2498 0
2500 2501 2502 0
-2497 -100 2500 0
-2497 -101 2501 0
-2497 -102 2502 0
-2498 -100 2501 0
-2498 -101 2502 0
-2498 -102 2500 0
-2499 -100 2502 0
-2499 -101 2500 0
-2499 -102 2501 0
2503 2504 2505 0
-2500 -112 2503 0
-2500 -113 2504 0
-2500 -114 2505 0
-2501 -112 2504 0
-2501 -113 2505 0
-2501 -114 2503 0
-2502 -112 2505 0
-2502 -113 2503 0
-2502 -114 2504 0
2506 2507 2508 0
-55 -58 2506 0
-55 -59 2507 0
-55 -60 2508 0
-56 -58 2507 0
-56 -59 2508 0
-56 -60 2506 0
-57 -58 2508 0
-57 -59 2506 0
-57 -60 2507 0
2509 2510 2511 0
-2506 -70 2509 0
-2506 -71 2510 0
-2506 -72 2511 0
-2507 -70 2510 0
-2507 -71 2511 0
-2507 -72 2509 0
-2508 -70 2511 0
-2508 -71 2509 0
-2508 -72 2510 0
2512 2513 2514 0
-2509 -91 2512 0
-2509 -92 2513 0
-2509 -93 2514 0
-2510 -91 2513 0
-2510 -92 2514 0
-2510 -93 2512 0
-2511 -91 2514 0
-2511 -92 2512 0
-2511 -93 2513 0
2515 2516 2517 0
-2512 -103 2515 0
-2512 -104 2516 0
-2512 -105 2517 0
-2513 -103 2516 0
-2513 -104 2517 0
-2513 -105 2515 0
-2514 -103 2517 0
-2514 -104 2515 0
-2514 -105 2516 0
2518 2519 2520 0
-2515 -115 2518 0
-2515 -116 2519 0
-2515 -117 2520 0
-2516 -115 2519 0
-2516 -116 2520 0
-2516 -117 2518 0
-2517 -115 2520 0
-2517 -116 2518 0
-2517 -117 2519 0
2521 2522 2523 0
-55 -61 2521 0
-55 -62 2522 0
-55 -63 2523 0
-56 -61 2522 0
-56 -62 2523 0
-56 -63 2521 0
-57 -61 2523 0
-57 -62 2521 0
-57 -63 2522 0
2524 2525 2526 0
-2521 -64 2524 0
-2521 -65 2525 0
-2521 -66 2526 0
-2522 -64 2525 0
-2522 -65 2526 0
-2522 -66 2524 0
-2523 -64 2526 0
-2523 -65 2524 0
-2523 -66 2525 0
2527 2528 2529 0
-2524 -94 2527 0
-2524 -95 2528 0
-2524 -96 2529 0
-2525 -94 2528 0
-2525 -95 2529 0
-2525 -96 2527 0
-2526 -94 2529 0
-2526 -95 2527 0
-2526 -96 2528 0
2530 2531 2532 0
-2527 -97 2530 0
-2527 -98 2531 0
-2527 -99 2532 0
-2528 -97 2531 0
-2528 -98 2532 0
-2528 -99 2530 0
-2529 -97 2532 0
-2529 -98 2530 0
-2529 -99 2531 0
2533 2534 2535 0
-2530 -118 2533 0
-2530 -119 2534 0
-2530 -120 2535 0
-2531 -118 2534 0
-2531 -119 2535 0
-2531 -120 2533 0
-2532 -118 2535 0
-2532 -119 2533 0
-2532 -120 2534 0
2536 2537 2538 0
-55 -61 2536 0
-55 -62 2537 0
-55 -63 2538 0
-56 -61 2537 0
-56 -62 2538 0
-56 -63 2536 0
-57 -61 2538 0
-57 -62 2536 0
-57 -63 2537 0
2539 2540 2541 0
-2536 -67 2539 0
-2536 -68 2540 0
-2536 -69 2541 0
-2537 -67 2540 0
-2537 -68 2541 0
-2537 -69 2539 0
-2538 -67 2541 0
-2538 -68 2539 0
-2538 -69 2540 0
2542 2543 2544 0
-2539 -94 2542 0
-2539 -95 2543 0
-2539 -96 2544 0
-2540 -94 2543 0
-2540 -95 2544 0
-2540 -96 2542 0
-2541 -94 2544 0
-2541 -95 2542 0
-2541 -96 2543 0
2545 2546 2547 0
-2542 -100 2545 0
-2542 -101 2546 0
-2542 -102 2547 0
-2543 -100 2546 0
-2543 -101 2547 0
-2543 -102 2545 0
-2544 -100 2547 0
-2544 -101 2545 0
-2544 -102 2546 0
2548 2549 2550 0
-2545 -121 2548 0
-2545 -122 2549 0
-2545 -123 2550 0
-2546 -121 2549 0
-2546 -122 2550 0
-2546 -123 2548 0
-2547 -121 2550 0
-2547 -122 2548 0
-2547 -123 2549 0
2551 2552 2553 0
-55 -61 2551 0
-55 -62 2552 0
-55 -63 2553 0
-56 -61 2552 0
-56 -62 2553 0
-56 -63 2551 0
-57 -61 2553 0
-57 -62 2551 0
-57 -63 2552 0
2554 2555 2556 0
-2551 -70 2554 0
-2551 -71 2555 0
-2551 -72 2556 0
-2552 -70 2555 0
-2552 -71 2556 0
-2552 -72 2554 0
-2553 -70 2556 0
-2553 -71 2554 0
-2553 -72 2555 0
2557 2558 2559 0
-2554 -94 2557 0
-2554 -95 2558 0
-2554 -96 2559 0
-2555 -94 2558 0
-2555 -95 2559 0
-2555 -96 2557 0
-2556 -94 2559 0
-2556 -95 2557 0
-2556 -96 2558 0
2560 2561 2562 0
-2557 -103 2560 0
-2557 -104 2561 0
-2557 -105 2562 0
-2558 -103 2561 0
-2558 -104 2562 0
-2558 -105 2560 0
-2559 -103 2562 0
-2559 -104 2560 0
-2559 -105 2561 0
2563 2564 2565 0
-2560 -124 2563 0
-2560 -125 2564 0
-2560 -126 2565 0
-2561 -124 2564 0
-2561 -125 2565 0
-2561 -126 2563 0
-2562 -124 2565 0
-2562 -125 2563 0
-2562 -126 2564 0
2566 2567 2568 0
-55 -64 2566 0
-55 -65 2567 0
-55 -66 2568 0
-56 -64 2567 0
-56 -65 2568 0
-56 -66 2566 0
-57 -64 2568 0
-57 -65 2566 0
-57 -66 2567 0
2569 2570 2571 0
-2566 -67 2569 0
-2566 -68 2570 0
-2566 -69 2571 0
-2567 -67 2570 0
-2567 -68 2571 0
-2567 -69 2569 0
-2568 -67 2571 0
-2568 -68 2569 0
-2568 -69 2570 0
2572 2573 2574 0
-2569 -97 2572 0
-2569 -98 2573 0
-2569 -99 2574 0
-2570 -97 2573 0
-2570 -98 2574 0
-2570 -99 2572 0
-2571 -97 2574 0
-2571 -98 2572 0
-2571 -99 2573 0
2575 2576 2577 0
-2572 -100 2575 0
-2572 -101 2576 0
-2572 -102 2577 0
-2573 -100 2576 0
-2573 -101 2577 0
-2573 -102 2575 0
-2574 -100 2577 0
-2574 -101 2575 0
-2574 -102 2576 0
2578 2579 2580 0
-2575 -127 2578 0
-2575 -128 2579 0
-2575 -129 2580 0
-2576 -127 2579 0
-2576 -128 2580 0
-2576 -129 2578 0
-2577 -127 2580 0
-2577 -128 2578 0
-2577 -129 2579 0
2581 2582 2583 0
-55 -64 2581 0
-55 -65 2582 0
-55 -66 2583 0
-56 -64 2582 0
-56 -65 2583 0
-56 -66 2581 0
-57 -64 2583 0
-57 -65 2581 0
-57 -66 2582 0
2584 2585 2586 0
-2581 -70 2584 0
-2581 -71 2585 0
-2581 -72 2586 0
-2582 -70 2585 0
-2582 -71 2586 0
-2582 -72 2584 0
-2583 -70 2586 0
-2583 -71 2584 0
-2583 -72 2585 0
2587 2588 2589 0
-2584 -97 2587 0
-2584 -98 2588 0
-2584 -99 2589 0
-2585 -97 2588 0
-2585 -98 2589 0
-2585 -99 2587 0
-2586 -97 2589 0
-2586 -98 2587 0
-2586 -99 2588 0
2590 2591 2592 0
-2587 -103 2590 0
-2587 -104 2591 0
-2587 -105 2592 0
-2588 -103 2591 0
-2588 -104 2592 0
-2588 -105 2590 0
-2589 -103 2592 0
-2589 -104 2590 0
-2589 -105 2591 0
2593 2594 2595 0
-2590 -130 2593 0
-2590 -131 2594 0
-2590 -132 2595 0
-2591 -130 2594 0
-2591 -131 2595 0
-2591 -132 2593 0
-2592 -130 2595 0
-2592 -131 2593 0
-2592 -132 2594 0
2596 2597 2598 0
-55 -67 2596 0
-55 -68 2597 0
-55 -69 2598 0
-56 -67 2597 0
-56 -68 2598 0
-56 -69 2596 0
-57 -67 2598 0
-57 -68 2596 0
-57 -69 2597 0
2599 2600 2601 0
-2596 -70 2599 0
-2596 -71 2600 0
-2596 -72 2601 0
-2597 -70 2600 0
-2597 -71 2601 0
-2597 -72 2599 0
-2598 -70 2601 0
-2598 -71 2599 0
-2598 -72 2600 0
2602 2603 2604 0
-2599 -100 2602 0
-2599 -101 2603 0
-2599 -102 2604 0
-2600 -100 2603 0
-2600 -101 2604 0
-2600 -102 2602 0
-2601 -100 2604 0
-2601 -101 2602 0
-2601 -102 2603 0
2605 2606 2607 0
-2602 -103 2605 0
-2602 -104 2606 0
-2602 -105 2607 0
-2603 -103 2606 0
-2603 -104 2607 0
-2603 -105 2605 0
-2604 -103 2607 0
-2604 -104 2605 0
-2604 -105 2606 0
2608 2609 2610 0
-2605 -133 2608 0
-2605 -134 2609 0
-2605 -135 2610 0
-2606 -133 2609 0
-2606 -134 2610 0
-2606 -135 2608 0
-2607 -133 2610 0
-2607 -134 2608 0
-2607 -135 2609 0
2611 2612 2613 0
-58 -61 2611 0
-58 -62 2612 0
-58 -63 2613 0
-59 -61 2612 0
-59 -62 2613 0
-59 -63 2611 0
-60 -61 2613 0
-60 -62 2611 0
-60 -63 2612 0
2614 2615 2616 0
-2611 -64 2614 0
-2611 -65 2615 0
-2611 -66 2616 0
-2612 -64 2615 0
-2612 -65 2616 0
-2612 -66 2614 0
-2613 -64 2616 0
-2613 -65 2614 0
-2613 -66 2615 0
2617 2618 2619 0
-2614 -106 2617 0
-2614 -107 2618 0
-2614 -108 2619 0
-2615 -106 2618 0
-2615 -107 2619 0
-2615 -108 2617 0
-2616 -106 2619 0
-2616 -107 2617 0
-2616 -108 2618 0
2620 2621 2622 0
-2617 -109 2620 0
-2617 -110 2621 0
-2617 -111 2622 0
-2618 -109 2621 0
-2618 -110 2622 0
-2618 -111 2620 0
-2619 -109 2622 0
-2619 -110 2620 0
-2619 -111 2621 0
2623 2624 2625 0
-2620 -118 2623 0
-2620 -119 2624 0
-2620 -120 2625 0
-2621 -118 2624 0
-2621 -119 2625 0
-2621 -120 2623 0
-2622 -118 2625 0
-2622 -119 2623 0
-2622 -120 2624 0
2626 2627 2628 0
-58 -61 2626 0
-58 -62 2627 0
-58 -63 2628 0
-59 -61 2627 0
-59 -62 2628 0
-59 -63 2626 0
-60 -61 2628 0
-60 -62 2626 0
-60 -63 2627 0
2629 2630 2631 0
-2626 -67 2629 0
-2626 -68 2630 0
-2626 -69 2631 0
-2627 -67 2630 0
-2627 -68 2631 0
-2627 -69 2629 0
-2628 -67 2631 0
-2628 -68 2629 0
-2628 -69 2630 0
2632 2633 2634 0
-2629 -106 2632 0
-2629 -107 2633 0
-2629 -108 2634 0
-2630 -106 2633 0
-2630 -107 2634 0
-2630 -108 2632 0
-2631 -106 2634 0
-2631 -107 2632 0
-2631 -108 2633 0
2635 2636 2637 0
-2632 -112 2635 0
-2632 -113 2636 0
-2632 -114 2637 0
-2633 -112 2636 0
-2633 -113 2637 0
-2633 -114 2635 0
-2634 -112 2637 0
-2634 -113 2635 0
-2634 -114 2636 0
2638 2639 2640 0
-2635 -121 2638 0
-2635 -122 2639 0
-2635 -123 2640 0
-2636 -121 2639 0
-2636 -122 2640 0
-2636 -123 2638 0
-2637 -121 2640 0
-2637 -122 2638 0
-2637 -123 2639 0
2641 2642 2643 0
-58 -61 2641 0
-58 -62 2642 0
-58 -63 2643 0
-59 -61 2642 0
-59 -62 2643 0
-59 -63 2641 0
-60 -61 2643 0
-60 -62 2641 0
-60 -63 2642 0
2644 2645 2646 0
-2641 -70 2644 0
-2641 -71 2645 0
-2641 -72 2646 0
-2642 -70 2645 0
-2642 -71 2646 0
-2642 -72 2644 0
-2643 -70 2646 0
-2643 -71 2644 0
-2643 -72 2645 0
2647 2648 2649 0
-2644 -106 2647 0
-2644 -107 2648 0
-2644 -108 2649 0
-2645 -106 2648 0
-2645 -107 2649 0
-2645 -108 2647 0
-2646 -106 2649 0
-2646 -107 2647 0
-2646 -108 2648 0
2650 2651 2652 0
-2647 -115 2650 0
-2647 -116 2651 0
-2647 -117 2652 0
-2648 -115 2651 0
-2648 -116 2652 0
-2648 -117 2650 0
-2649 -115 2652 0
-2649 -116 2650 0
-2649 -117 2651 0
2653 2654 2655 0
-2650 -124 2653 0
-2650 -125 2654 0
-2650 -126 2655 0
-2651 -124 2654 0
-2651 -125 2655 0
-2651 -126 2653 0
-2652 -124 2655 0
-2652 -125 2653 0
-2652 -126 2654 0
2656 2657 2658 0
-58 -64 2656 0
-58 -65 2657 0
-58 -66 2658 0
-59 -64 2657 0
-59 -65 2658 0
-59 -66 2656 0
-60 -64 2658 0
-60 -65 2656 0
-60 -66 2657 0
2659 2660 2661 0
-2656 -67 2659 0
-2656 -68 2660 0
-2656 -69 2661 0
-2657 -67 2660 0
-2657 -68 2661 0
-2657 -69 2659 0
-2658 -67 2661 0
-2658 -68 2659 0
-2658 -69 2660 0
2662 2663 2664 0
-2659 -109 2662 0
-2659 -110 2663 0
-2659 -111 2664 0
-2660 -109 2663 0
-2660 -110 2664 0
-2660 -111 2662 0
-2661 -109 2664 0
-2661 -110 2662 0
-2661 -111 2663 0
2665 2666 2667 0
-2662 -112 2665 0
-2662 -113 2666 0
-2662 -114 2667 0
-2663 -112 2666 0
-2663 -113 2667 0
-2663 -114 2665 0
-2664 -112 2667 0
-2664 -113 2665 0
-2664 -114 2666 0
2668 2669 2670 0
-2665 -127 2668 0
-2665 -128 2669 0
-2665 -129 2670 0
-2666 -127 2669 0
-2666 -128 2670 0
-2666 -129 2668 0
-2667 -127 2670 0
-2667 -128 2668 0
-2667 -129 2669 0
2671 2672 2673 0
-58 -64 2671 0
-58 -65 2672 0
-58 -66 2673 0
-59 -64 2672 0
-59 -65 2673 0
-59 -66 2671 0
-60 -64 2673 0
-60 -65 2671 0
-60 -66 2672 0
2674 2675 2676 0
-2671 -70 2674 0
-2671 -71 2675 0
-2671 -72 2676 0
-2672 -70 2675 0
-2672 -71 2676 0
-2672 -72 2674 0
-2673 -70 2676 0
-2673 -71 2674 0
-2673 -72 2675 0
2677 2678 2679 0
-2674 -109 2677 0
-2674 -110 2678 0
-2674 -111 2679 0
-2675 -109 2678 0
-2675 -110 2679 0
-2675 -111 2677 0
-2676 -109 2679 0
-2676 -110 2677 0
-2676 -111 2678 0
2680 2681 2682 0
-2677 -115 2680 0
-2677 -116 2681 0
-2677 -117 2682 0
-2678 -115 2681 0
-2678 -116 2682 0
-2678 -117 2680 0
-2679 -115 2682 0
-2679 -116 2680 0
-2679 -117 2681 0
2683 2684 2685 0
-2680 -130 2683 0
-2680 -131 2684 0
-2680 -132 2685 0
-2681 -130 2684 0
-2681 -131 2685 0
-2681 -132 2683 0
-2682 -130 2685 0
-2682 -131 2683 0
-2682 -132 2684 0
2686 2687 2688 0
-58 -67 2686 0
-58 -68 2687 0
-58 -69 2688 0
-59 -67 2687 0
-59 -68 2688 0
-59 -69 2686 0
-60 -67 2688 0
-60 -68 2686 0
-60 -69 2687 0
2689 2690 2691 0
-2686 -70 2689 0
-2686 -71 2690 0
-2686 -72 2691 0
-2687 -70 2690 0
-2687 -71 2691 0
-2687 -72 2689 0
-2688 -70 2691 0
-2688 -71 2689 0
-2688 -72 2690 0
2692 2693 2694 0
-2689 -112 2692 0
-2689 -113 2693 0
-2689 -114 2694 0
-2690 -112 2693 0
-2690 -113 2694 0
-2690 -114 2692 0
-2691 -112 2694 0
-2691 -113 2692 0
-2691 -114 2693 0
2695 2696 2697 0
-2692 -115 2695 0
-2692 -116 2696 0
-2692 -117 2697 0
-2693 -115 2696 0
-2693 -116 2697 0
-2693 -117 2695 0
-2694 -115 2697 0
-2694 -116 2695 0
-2694 -117 2696 0
2698 2699 2700 0
-2695 -133 2698 0
-2695 -134 2699 0
-2695 -135 2700 0
-2696 -133 2699 0
-2696 -134 2700 0
-2696 -135 2698 0
-2697 -133 2700 0
-2697 -134 2698 0
-2697 -135 2699 0
2701 2702 2703 0
-61 -64 2701 0
-61 -65 2702 0
-61 -66 2703 0
-62 -64 2702 0
-62 -65 2703 0
-62 -66 2701 0
-63 -64 2703 0
-63 -65 2701 0
-63 -66 2702 0
2704 2705 2706 0
-2701 -67 2704 0
-2701 -68 2705 0
-2701 -69 2706 0
-2702 -67 2705 0
-2702 -68 2706 0
-2702 -69 2704 0
-2703 -67 2706 0
-2703 -68 2704 0
-2703 -69 2705 0
2707 2708 2709 0
-2704 -118 2707 0
-2704 -119 2708 0
-2704 -120 2709 0
-2705 -118 2708 0
-2705 -119 2709 0
-2705 -120 2707 0
-2706 -118 2709 0
-2706 -119 2707 0
-2706 -120 2708 0
2710 2711 2712 0
-2707 -121 2710 0
-2707 -122 2711 0
-2707 -123 2712 0
-2708 -121 2711 0
-2708 -122 2712 0
-2708 -123 2710 0
-2709 -121 2712 0
-2709 -122 2710 0
-2709 -123 2711 0
2713 2714 2715 0
-2710 -127 2713 0
-2710 -128 2714 0
-2710 -129 2715 0
-2711 -127 2714 0
-2711 -128 2715 0
-2711 -129 2713 0
-2712 -127 2715 0
-2712 -128 2713 0
-2712 -129 2714 0
2716 2717 2718 0
-61 -64 2716 0
-61 -65 2717 0
-61 -66 2718 0
-62 -64 2717 0
-62 -65 2718 0
-62 -66 2716 0
-63 -64 2718 0
-63 -65 2716 0
-63 -66 2717 0
2719 2720 2721 0
-2716 -70 2719 0
-2716 -71 2720 0
-2716 -72 2721 0
-2717 -70 2720 0
-2717 -71 2721 0
-2717 -72 2719 0
-2718 -70 2721 0
-2718 -71 2719 0
-2718 -72 2720 0
2722 2723 2724 0
-2719 -118 2722 0
-2719 -119 2723 0
-2719 -120 2724 0
-2720 -118 2723 0
-2720 -119 2724 0
-2720 -120 2722 0
-2721 -118 2724 0
-2721 -119 2722 0
-2721 -120 2723 0
2725 2726 2727 0
-2722 -124 2725 0
-2722 -125 2726 0
-2722 -126 2727 0
-2723 -124 2726 0
-2723 -125 2727 0
-2723 -126 2725 0
-2724 -124 2727 0
-2724 -125 2725 0
-2724 -126 2726 0
2728 2729 2730 0
-2725 -130 2728 0
-2725 -131 2729 0
-2725 -132 2730 0
-2726 -130 2729 0
-2726 -131 2730 0
-2726 -132 2728 0
-2727 -130 2730 0
-2727 -131 2728 0
-2727 -132 2729 0
2731 2732 2733 0
-61 -67 2731 0
-61 -68 2732 0
-61 -69 2733 0
-62 -67 2732 0
-62 -68 2733 0
-62 -69 2731 0
-63 -67 2733 0
-63 -68 2731 0
-63 -69 2732 0
2734 2735 2736 0
-2731 -70 2734 0
-2731 -71 2735 0
-2731 -72 2736 0
-2732 -70 2735 0
-2732 -71 2736 0
-2732 -72 2734 0
-2733 -70 2736 0
-2733 -71 2734 0
-2733 -72 2735 0
2737 2738 2739 0
-2734 -121 2737 0
-2734 -122 2738 0
-2734 -123 2739 0
-2735 -121 2738 0
-2735 -122 2739 0
-2735 -123 2737 0
-2736 -121 2739 0
-2736 -122 2737 0
-2736 -123 2738 0
2740 2741 2742 0
-2737 -124 2740 0
-2737 -125 2741 0
-2737 -126 2742 0
-2738 -124 2741 0
-2738 -125 2742 0
-2738 -126 2740 0
-2739 -124 2742 0
-2739 -125 2740 0
-2739 -126 2741 0
2743 2744 2745 0
-2740 -133 2743 0
-2740 -134 2744 0
-2740 -135 2745 0
-2741 -133 2744 0
-2741 -134 2745 0
-2741 -135 2743 0
-2742 -133 2745 0
-2742 -134 2743 0
-2742 -135 2744 0
2746 2747 2748 0
-64 -67 2746 0
-64 -68 2747 0
-64 -69 2748 0
-65 -67 2747 0
-65 -68 2748 0
-65 -69 2746 0
-66 -67 2748 0
-66 -68 2746 0
-66 -69 2747 0
2749 2750 2751 0
-2746 -70 2749 0
-2746 -71 2750 0
-2746 -72 2751 0
-2747 -70 2750 0
-2747 -71 2751 0
-2747 -72 2749 0
-2748 -70 2751 0
-2748 -71 2749 0
-2748 -72 2750 0
2752 2753 2754 0
-2749 -127 2752 0
-2749 -128 2753 0
-2749 -129 2754 0
-2750 -127 2753 0
-2750 -128 2754 0
-2750 -129 2752 0
-2751 -127 2754 0
-2751 -128 2752 0
-2751 -129 2753 0
2755 2756 2757 0
-2752 -130 2755 0
-2752 -131 2756 0
-2752 -132 2757 0
-2753 -130 2756 0
-2753 -131 2757 0
-2753 -132 2755 0
-2754 -130 2757 0
-2754 -131 2755 0
-2754 -132 2756 0
2758 2759 2760 0
-2755 -133 2758 0
-2755 -134 2759 0
-2755 -135 2760 0
-2756 -133 2759 0
-2756 -134 2760 0
-2756 -135 2758 0
-2757 -133 2760 0
-2757 -134 2758 0
-2757 -135 2759 0
2761 2762 2763 0
-73 -76 2761 0
-73 -77 2762 0
-73 -78 2763 0
-74 -76 2762 0
-74 -77 2763 0
-74 -78 2761 0
-75 -76 2763 0
-75 -77 2761 0
-75 -78 2762 0
2764 2765 2766 0
-2761 -79 2764 0
-2761 -80 2765 0
-2761 -81 2766 0
-2762 -79 2765 0
-2762 -80 2766 0
-2762 -81 2764 0
-2763 -79 2766 0
-2763 -80 2764 0
-2763 -81 2765 0
2767 2768 2769 0
-2764 -91 2767 0
-2764 -92 2768 0
-2764 -93 2769 0
-2765 -91 2768 0
-2765 -92 2769 0
-2765 -93 2767 0
-2766 -91 2769 0
-2766 -92 2767 0
-2766 -93 2768 0
2770 2771 2772 0
-2767 -94 2770 0
-2767 -95 2771 0
-2767 -96 2772 0
-2768 -94 2771 0
-2768 -95 2772 0
-2768 -96 2770 0
-2769 -94 2772 0
-2769 -95 2770 0
-2769 -96 2771 0
2773 2774 2775 0
-2770 -106 2773 0
-2770 -107 2774 0
-2770 -108 2775 0
-2771 -106 2774 0
-2771 -107 2775 0
-2771 -108 2773 0
-2772 -106 2775 0
-2772 -107 2773 0
-2772 -108 2774 0
2776 2777 2778 0
-73 -76 2776 0
-73 -77 2777 0
-73 -78 2778 0
-74 -76 2777 0
-74 -77 2778 0
-74 -78 2776 0
-75 -76 2778 0
-75 -77 2776 0
-75 -78 2777 0
2779 2780 2781 0
-2776 -82 2779 0
-2776 -83 2780 0
-2776 -84 2781 0
-2777 -82 2780 0
-2777 -83 2781 0
-2777 -84 2779 0
-2778 -82 2781 0
-2778 -83 2779 0
-2778 -84 2780 0
2782 2783 2784 0
-2779 -91 2782 0
-2779 -92 2783 0
-2779 -93 2784 0
-2780 -91 2783 0
-2780 -92 2784 0
-2780 -93 2782 0
-2781 -91 2784 0
-2781 -92 2782 0
-2781 -93 2783 0
2785 2786 2787 0
-2782 -97 2785 0
-2782 -98 2786 0
-2782 -99 2787 0
-2783 -97 2786 0
-2783 -98 2787 0
-2783 -99 2785 0
-2784 -97 2787 0
-2784 -98 2785 0
-2784 -99 2786 0
2788 2789 2790 0
-2785 -109 2788 0
-2785 -110 2789 0
-2785 -111 2790 0
-2786 -109 2789 0
-2786 -110 2790 0
-2786 -111 2788 0
-2787 -109 2790 0
-2787 -110 2788 0
-2787 -111 2789 0
2791 2792 2793 0
-73 -76 2791 0
-73 -77 2792 0
-73 -78 2793 0
-74 -76 2792 0
-74 -77 2793 0
-74 -78 2791 0
-75 -76 2793 0
-75 -77 2791 0
-75 -78 2792 0
2794 2795 2796 0
-2791 -85 2794 0
-2791 -86 2795 0
-2791 -87 2796 0
-2792 -85 2795 0
-2792 -86 2796 0
-2792 -87 2794 0
-2793 -85 2796 0
-2793 -86 2794 0
-2793 -87 2795 0
2797 2798 2799 0
-2794 -91 2797 0
-2794 -92 2798 0
-2794 -93 2799 0
-2795 -91 2798 0
-2795 -92 2799 0
-2795 -93 2797 0
-2796 -91 2799 0
-2796 -92 2797 0
-2796 -93 2798 0
2800 2801 2802 0
-2797 -100 2800 0
-2797 -101 2801 0
-2797 -102 2802 0
-2798 -100 2801 0
-2798 -101 2802 0
-2798 -102 2800 0
-2799 -100 2802 0
-2799 -101 2800 0
-2799 -102 2801 0
2803 2804 2805 0
-2800 -112 2803 0
-2800 -113 2804 0
-2800 -114 2805 0
-2801 -112 2804 0
-2801 -113 2805 0
-2801 -114 2803 0
-2802 -112 2805 0
-2802 -113 2803 0
-2802 -114 2804 0
2806 2807 2808 0
-73 -76 2806 0
-73 -77 2807 0
-73 -78 2808 0
-74 -76 2807 0
-74 -77 2808 0
-74 -78 2806 0
-75 -76 2808 0
-75 -77 2806 0
-75 -78 2807 0
2809 2810 2811 0
-2806 -88 2809 0
-2806 -89 2810 0
-2806 -90 2811 0
-2807 -88 2810 0
-2807 -89 2811 0
-2807 -90 2809 0
-2808 -88 2811 0
-2808 -89 2809 0
-2808 -90 2810 0
2812 2813 2814 0
-2809 -91 2812 0
-2809 -92 2813 0
-2809 -93 2814 0
-2810 -91 2813 0
-2810 -92 2814 0
-2810 -93 2812 0
-2811 -91 2814 0
-2811 -92 2812 0
-2811 -93 2813 0
2815 2816 2817 0
-2812 -103 2815 0
-2812 -104 2816 0
-2812 -105 2817 0
-2813 -103 2816 0
-2813 -104 2817 0
-2813 -105 2815 0
-2814 -103 2817 0
-2814 -104 2815 0
-2814 -105 2816 0
2818 2819 2820 0
-2815 -115 2818 0
-2815 -116 2819 0
-2815 -117 2820 0
-2816 -115 2819 0
-2816 -116 2820 0
-2816 -117 2818 0
-2817 -115 2820 0
-2817 -116 2818 0
-2817 -117 2819 0
2821 2822 2823 0
-73 -79 2821 0
-73 -80 2822 0
-73 -81 2823 0
-74 -79 2822 0
-74 -80 2823 0
-74 -81 2821 0
-75 -79 2823 0
-75 -80 2821 0
-75 -81 2822 0
2824 2825 2826 0
-2821 -82 2824 0
-2821 -83 2825 0
-2821 -84 2826 0
-2822 -82 2825 0
-2822 -83 2826 0
-2822 -84 2824 0
-2823 -82 2826 0
-2823 -83 2824 0
-2823 -84 2825 0
2827 2828 2829 0
-2824 -94 2827 0
-2824 -95 2828 0
-2824 -96 2829 0
-2825 -94 2828 0
-2825 -95 2829 0
-2825 -96 2827 0
-2826 -94 2829 0
-2826 -95 2827 0
-2826 -96 2828 0
2830 2831 2832 0
-2827 -97 2830 0
-2827 -98 2831 0
-2827 -99 2832 0
-2828 -97 2831 0
-2828 -98 2832 0
-2828 -99 2830 0
-2829 -97 2832 0
-2829 -98 2830 0
-2829 -99 2831 0
2833 2834 2835 0
-2830 -118 2833 0
-2830 -119 2834 0
-2830 -120 2835 0
-2831 -118 2834 0
-2831 -119 2835 0
-2831 -120 2833 0
-2832 -118 2835 0
-2832 -119 2833 0
-2832 -120 2834 0
2836 2837 2838 0
-73 -79 2836 0
-73 -80 2837 0
-73 -81 2838 0
-74 -79 2837 0
-74 -80 2838 0
-74 -81 2836 0
-75 -79 2838 0
-75 -80 2836 0
-75 -81 2837 0
2839 2840 2841 0
-2836 -85 2839 0
-2836 -86 2840 0
-2836 -87 2841 0
-2837 -85 2840 0
-2837 -86 2841 0
-2837 -87 2839 0
-2838 -85 2841 0
-2838 -86 2839 0
-2838 -87 2840 0
2842 2843 2844 0
-2839 -94 2842 0
-2839 -95 2843 0
-2839 -96 2844 0
-2840 -94 2843 0
-2840 -95 2844 0
-2840 -96 2842 0
-2841 -94 2844 0
-2841 -95 2842 0
-2841 -96 2843 0
2845 2846 2847 0
-2842 -100 2845 0
-2842 -101 2846 0
-2842 -102 2847 0
-2843 -100 2846 0
-2843 -101 2847 0
-2843 -102 2845 0
-2844 -100 2847 0
-2844 -101 2845 0
-2844 -102 2846 0
2848 2849 2850 0
-2845 -121 2848 0
-2845 -122 2849 0
-2845 -123 2850 0
-2846 -121 2849 0
-2846 -122 2850 0
-2846 -123 2848 0
-2847 -121 2850 0
-2847 -122 2848 0
-2847 -123 2849 0
2851 2852 2853 0
-73 -79 2851 0
-73 -80 2852 0
-73 -81 2853 0
-74 -79 2852 0
-74 -80 2853 0
-74 -81 2851 0
-75 -79 2853 0
-75 -80 2851 0
-75 -81 2852 0
2854 2855 2856 0
-2851 -88 2854 0
-2851 -89 2855 0
-2851 -90 2856 0
-2852 -88 2855 0
-2852 -89 2856 0
-2852 -90 2854 0
-2853 -88 2856 0
-2853 -89 2854 0
-2853 -90 2855 0
2857 2858 2859 0
-2854 -94 2857 0
-2854 -95 2858 0
-2854 -96 2859 0
-2855 -94 2858 0
-2855 -95 2859 0
-2855 -96 2857 0
-2856 -94 2859 0
-2856 -95 2857 0
-2856 -96 2858 0
2860 2861 2862 0
-2857 -103 2860 0
-2857 -104 2861 0
-2857 -105 2862 0
-2858 -103 2861 0
-2858 -104 2862 0
-2858 -105 2860 0
-2859 -103 2862 0
-2859 -104 2860 0
-2859 -105 2861 0
2863 2864 2865 0
-2860 -124 2863 0
-2860 -125 2864 0
-2860 -126 2865 0
-2861 -124 2864 0
-2861 -125 2865 0
-2861 -126 2863 0
-2862 -124 2865 0
-2862 -125 2863 0
-2862 -126 2864 0
2866 2867 2868 0
-73 -82 2866 0
-73 -83 2867 0
-73 -84 2868 0
-74 -82 2867 0
-74 -83 2868 0
-74 -84 2866 0
-75 -82 2868 0
-75 -83 2866 0
-75 -84 2867 0
2869 2870 2871 0
-2866 -85 2869 0
-2866 -86 2870 0
-2866 -87 2871 0
-2867 -85 2870 0
-2867 -86 2871 0
-2867 -87 2869 0
-2868 -85 2871 0
-2868 -86 2869 0
-2868 -87 2870 0
2872 2873 2874 0
-2869 -97 2872 0
-2869 -98 2873 0
-2869 -99 2874 0
-2870 -97 2873 0
-2870 -98 2874 0
-2870 -99 2872 0
-2871 -97 2874 0
-2871 -98 2872 0
-2871 -99 2873 0
2875 2876 2877 0
-2872 -100 2875 0
-2872 -101 2876 0
-2872 -102 2877 0
-2873 -100 2876 0
-2873 -101 2877 0
-2873 -102 2875 0
-2874 -100 2877 0
-2874 -101 2875 0
-2874 -102 2876 0
2878 2879 2880 0
-2875 -127 2878 0
-2875 -128 2879 0
-2875 -129 2880 0
-2876 -127 2879 0
-2876 -128 2880 0
-2876 -129 2878 0
-2877 -127 2880 0
-2877 -128 2878 0
-2877 -129 2879 0
2881 2882 2883 0
-73 -82 2881 0
-73 -83 2882 0
-73 -84 2883 0
-74 -82 2882 0
-74 -83 2883 0
-74 -84 2881 0
-75 -82 2883 0
-75 -83 2881 0
-75 -84 2882 0
2884 2885 2886 0
-2881 -88 2884 0
-2881 -89 2885 0
-2881 -90 2886 0
-2882 -88 2885 0
-2882 -89 2886 0
-2882 -90 2884 0
-2883 -88 2886 0
-2883 -89 2884 0
-2883 -90 2885 0
2887 2888 2889 0
-2884 -97 2887 0
-2884 -98 2888 0
-2884 -99 2889 0
-2885 -97 2888 0
-2885 -98 2889 0
-2885 -99 2887 0
-2886 -97 2889 0
-2886 -98 2887 0
-2886 -99 2888 0
2890 2891 2892 0
-2887 -103 2890 0
-2887 -104 2891 0
-2887 -105 2892 0
-2888 -103 2891 0
-2888 -104 2892 0
-2888 -105 2890 0
-2889 -103 2892 0
-2889 -104 2890 0
-2889 -105 2891 0
2893 2894 2895 0
-2890 -130 2893 0
-2890 -131 2894 0
-2890 -132 2895 0
-2891 -130 2894 0
-2891 -131 2895 0
-2891 -132 2893 0
-2892 -130 2895 0
-2892 -131 2893 0
-2892 -132 2894 0
2896 2897 2898 0
-73 -85 2896 0
-73 -86 2897 0
-73 -87 2898 0
-74 -85 2897 0
-74 -86 2898 0
-74 -87 2896 0
-75 -85 2898 0
-75 -86 2896 0
-75 -87 2897 0
2899 2900 2901 0
-2896 -88 2899 0
-2896 -89 2900 0
-2896 -90 2901 0
-2897 -88 2900 0
-2897 -89 2901 0
-2897 -90 2899 0
-2898 -88 2901 0
-2898 -89 2899 0
-2898 -90 2900 0
2902 2903 2904 0
-2899 -100 2902 0
-2899 -101 2903 0
-2899 -102 2904 0
-2900 -100 2903 0
-2900 -101 2904 0
-2900 -102 2902 0
-2901 -100 2904 0
-2901 -101 2902 0
-2901 -102 2903 0
2905 2906 2907 0
-2902 -103 2905 0
-2902 -104 2906 0
-2902 -105 2907 0
-2903 -103 2906 0
-2903 -104 2907 0
-2903 -105 2905 0
-2904 -103 2907 0
-2904 -104 2905 0
-2904 -105 2906 0
2908 2909 2910 0
-2905 -133 2908 0
-2905 -134 2909 0
-2905 -135 2910 0
-2906 -133 2909 0
-2906 -134 2910 0
-2906 -135 2908 0
-2907 -133 2910 0
-2907 -134 2908 0
-2907 -135 2909 0
2911 2912 2913 0
-76 -79 2911 0
-76 -80 2912 0
-76 -81 2913 0
-77 -79 2912 0
-77 -80 2913 0
-77 -81 2911 0
-78 -79 2913 0
-78 -80 2911 0
-78 -81 2912 0
2914 2915 2916 0
-2911 -82 2914 0
-2911 -83 2915 0
-2911 -84 2916 0
-2912 -82 2915 0
-2912 -83 2916 0
-2912 -84 2914 0
-2913 -82 2916 0
-2913 -83 2914 0
-2913 -84 2915 0
2917 2918 2919 0
-2914 -106 2917 0
-2914 -107 2918 0
-2914 -108 2919 0
-2915 -106 2918 0
-2915 -107 2919 0
-2915 -108 2917 0
-2916 -106 2919 0
-2916 -107 2917 0
-2916 -108 2918 0
2920 2921 2922 0
-2917 -109 2920 0
-2917 -110 2921 0
-2917 -111 2922 0
-2918 -109 2921 0
-2918 -110 2922 0
-2918 -111 2920 0
-2919 -109 2922 0
-2919 -110 2920 0
-2919 -111 2921 0
2923 2924 2925 0
-2920 -118 2923 0
-2920 -119 2924 0
-2920 -120 2925 0
-2921 -118 2924 0
-2921 -119 2925 0
-2921 -120 2923 0
-2922 -118 2925 0
-2922 -119 2923 0
-2922 -120 2924 0
2926 2927 2928 0
-76 -79 2926 0
-76 -80 2927 0
-76 -81 2928 0
-77 -79 2927 0
-77 -80 2928 0
-77 -81 2926 0
-78 -79 2928 0
-78 -80 2926 0
-78 -81 2927 0
2929 2930 2931 0
-2926 -85 2929 0
-2926 -86 2930 0
-2926 -87 2931 0
-2927 -85 2930 0
-2927 -86 2931 0
-2927 -87 2929 0
-2928 -85 2931 0
-2928 -86 2929 0
-2928 -87 2930 0
2932 2933 2934 0
-2929 -106 2932 0
-2929 -107 2933 0
-2929 -108 2934 0
-2930 -106 2933 0
-2930 -107 2934 0
-2930 -108 2932 0
-2931 -106 2934 0
-2931 -107 2932 0
-2931 -108 2933 0
2935 2936 2937 0
-2932 -112 2935 0
-2932 -113 2936 0
-2932 -114 2937 0
-2933 -112 2936 0
-2933 -113 2937 0
-2933 -114 2935 0
-2934 -112 2937 0
-2934 -113 2935 0
-2934 -114 2936 0
2938 2939 2940 0
-2935 -121 2938 0
-2935 -122 2939 0
-2935 -123 2940 0
-2936 -121 2939 0
-2936 -122 2940 0
-2936 -123 2938 0
-2937 -121 2940 0
-2937 -122 2938 0
-2937 -123 2939 0
2941 2942 2943 0
-76 -79 2941 0
-76 -80 2942 0
-76 -81 2943 0
-77 -79 2942 0
-77 -80 2943 0
-77 -81 2941 0
-78 -79 2943 0
-78 -80 2941 0
-78 -81 2942 0
2944 2945 2946 0
-2941 -88 2944 0
-2941 -89 2945 0
-2941 -90 2946 0
-2942 -88 2945 0
-2942 -89 2946 0
-2942 -90 2944 0
-2943 -88 2946 0
-2943 -89 2944 0
-2943 -90 2945 0
2947 2948 2949 0
-2944 -106 2947 0
-2944 -107 2948 0
-2944 -108 2949 0
-2945 -106 2948 0
-2945 -107 2949 0
-2945 -108 2947 0
-2946 -106 2949 0
-2946 -107 2947 0
-2946 -108 2948 0
2950 2951 2952 0
-2947 -115 2950 0
-2947 -116 2951 0
-2947 -117 2952 0
-2948 -115 2951 0
-2948 -116 2952 0
-2948 -117 2950 0
-2949 -115 2952 0
-2949 -116 2950 0
-2949 -117 2951 0
2953 2954 2955 0
-2950 -124 2953 0
-2950 -125 2954 0
-2950 -126 2955 0
-2951 -124 2954 0
-2951 -125 2955 0
-2951 -126 2953 0
-2952 -124 2955 0
-2952 -125 2953 0
-2952 -126 2954 0
2956 2957 2958 0
-76 -82 2956 0
-76 -83 2957 0
-76 -84 2958 0
-77 -82 2957 0
-77 -83 2958 0
-77 -84 2956 0
-78 -82 2958 0
-78 -83 2956 0
-78 -84 2957 0
2959 2960 2961 0
-2956 -85 2959 0
-2956 -86 2960 0
-2956 -87 2961 0
-2957 -85 2960 0
-2957 -86 2961 0
-2957 -87 2959 0
-2958 -85 2961 0
-2958 -86 2959 0
-2958 -87 2960 0
2962 2963 2964 0
-2959 -109 2962 0
-2959 -110 2963 0
-2959 -111 2964 0
-2960 -109 2963 0
-2960 -110 2964 0
-2960 -111 2962 0
-2961 -109 2964 0
-2961 -110 2962 0
-2961 -111 2963 0
2965 2966 2967 0
-2962 -112 2965 0
-2962 -113 2966 0
-2962 -114 2967 0
-2963 -112 2966 0
-2963 -113 2967 0
-2963 -114 2965 0
-2964 -112 2967 0
-2964 -113 2965 0
-2964 -114 2966 0
2968 2969 2970 0
-2965 -127 2968 0
-2965 -128 2969 0
-2965 -129 2970 0
-2966 -127 2969 0
-2966 -128 2970 0
-2966 -129 2968 0
-2967 -127 2970 0
-2967 -128 2968 0
-2967 -129 2969 0
2971 2972 2973 0
-76 -82 2971 0
-76 -83 2972 0
-76 -84 2973 0
-77 -82 2972 0
-77 -83 2973 0
-77 -84 2971 0
-78 -82 2973 0
-78 -83 2971 0
-78 -84 2972 0
2974 2975 2976 0
-2971 -88 2974 0
-2971 -89 2975 0
-2971 -90 2976 0
-2972 -88 2975 0
-2972 -89 2976 0
-2972 -90 2974 0
-2973 -88 2976 0
-2973 -89 2974 0
-2973 -90 2975 0
2977 2978 2979 0
-2974 -109 2977 0
-2974 -110 2978 0
-2974 -111 2979 0
-2975 -109 2978 0
-2975 -110 2979 0
-2975 -111 2977 0
-2976 -109 2979 0
-2976 -110 2977 0
-2976 -111 2978 0
2980 2981 2982 0
-2977 -115 2980 0
-2977 -116 2981 0
-2977 -117 2982 0
-2978 -115 2981 0
-2978 -116 2982 0
-2978 -117 2980 0
-2979 -115 2982 0
-2979 -116 2980 0
-2979 -117 2981 0
2983 2984 2985 0
-2980 -130 2983 0
-2980 -131 2984 0
-2980 -132 2985 0
-2981 -130 2984 0
-2981 -131 2985 0
-2981 -132 2983 0
-2982 -130 2985 0
-2982 -131 2983 0
-2982 -132 2984 0
2986 2987 2988 0
-76 -85 2986 0
-76 -86 2987 0
-76 -87 2988 0
-77 -85 2987 0
-77 -86 2988 0
-77 -87 2986 0
-78 -85 2988 0
-78 -86 2986 0
-78 -87 2987 0
2989 2990 2991 0
-2986 -88 2989 0
-2986 -89 2990 0
-2986 -90 2991 0
-2987 -88 2990 0
-2987 -89 2991 0
-2987 -90 2989 0
-2988 -88 2991 0
-2988 -89 2989 0
-2988 -90 2990 0
2992 2993 2994 0
-2989 -112 2992 0
-2989 -113 2993 0
-2989 -114 2994 0
-2990 -112 2993 0
-2990 -113 2994 0
-2990 -114 2992 0
-2991 -112 2994 0
-2991 -113 2992 0
-2991 -114 2993 0
2995 2996 2997 0
-2992 -115 2995 0
-2992 -116 2996 0
-2992 -117 2997 0
-2993 -115 2996 0
-2993 -116 2997 0
-2993 -117 2995 0
-2994 -115 2997 0
-2994 -116 2995 0
-2994 -117 2996 0
2998 2999 3000 0
-2995 -133 2998 0
-2995 -134 2999 0
-2995 -135 3000 0
-2996 -133 2999 0
-2996 -134 3000 0
-2996 -135 2998 0
-2997 -133 3000 0
-2997 -134 2998 0
-2997 -135 2999 0
3001 3002 3003 0
-79 -82 3001 0
-79 -83 3002 0
-79 -84 3003 0
-80 -82 3002 0
-80 -83 3003 0
-80 -84 3001 0
-81 -82 3003 0
-81 -83 3001 0
-81 -84 3002 0
3004 3005 3006 0
-3001 -85 3004 0
-3001 -86 3005 0
-3001 -87 3006 0
-3002 -85 3005 0
-3002 -86 3006 0
-3002 -87 3004 0
-3003 -85 3006 0
-3003 -86 3004 0
-3003 -87 3005 0
3007 3008 3009 0
-3004 -118 3007 0
-3004 -119 3008 0
-3004 -120 3009 0
-3005 -118 3008 0
-3005 -119 3009 0
-3005 -120 3007 0
-3006 -118 3009 0
-3006 -119 3007 0
-3006 -120 3008 0
3010 3011 3012 0
-3007 -121 3010 0
-3007 -122 3011 0
-3007 -123 3012 0
-3008 -121 3011 0
-3008 -122 3012 0
-3008 -123 3010 0
-3009 -121 3012 0
-3009 -122 3010 0
-3009 -123 3011 0
3013 3014 3015 0
-3010 -127 3013 0
-3010 -128 3014 0
-3010 -129 3015 0
-3011 -127 3014 0
-3011 -128 3015 0
-3011 -129 3013 0
-3012 -127 3015 0
-3012 -128 3013 0
-3012 -129 3014 0
3016 3017 3018 0
-79 -82 3016 0
-79 -83 3017 0
-79 -84 3018 0
-80 -82 3017 0
-80 -83 3018 0
-80 -84 3016 0
-81 -82 3018 0
-81 -83 3016 0
-81 -84 3017 0
3019 3020 3021 0
-3016 -88 3019 0
-3016 -89 3020 0
-3016 -90 3021 0
-3017 -88 3020 0
-3017 -89 3021 0
-3017 -90 3019 0
-3018 -88 3021 0
-3018 -89 3019 0
-3018 -90 3020 0
3022 3023 3024 0
-3019 -118 3022 0
-3019 -119 3023 0
-3019 -120 3024 0
-3020 -118 3023 0
-3020 -119 3024 0
-3020 -120 3022 0
-3021 -118 3024 0
-3021 -119 3022 0
-3021 -120 3023 0
3025 3026 3027 0
-3022 -124 3025 0
-3022 -125 3026 0
-3022 -126 3027 0
-3023 -124 3026 0
-3023 -125 3027 0
-3023 -126 3025 0
-3024 -124 3027 0
-3024 -125 3025 0
-3024 -126 3026 0
3028 3029 3030 0
-3025 -130 3028 0
-3025 -131 3029 0
-3025 -132 3030 0
-3026 -130 3029 0
-3026 -131 3030 0
-3026 -132 3028 0
-3027 -130 3030 0
-3027 -131 3028 0
-3027 -132 3029 0
3031 3032 3033 0
-79 -85 3031 0
-79 -86 3032 0
-79 -87 3033 0
-80 -85 3032 0
-80 -86 3033 0
-80 -87 3031 0
-81 -85 3033 0
-81 -86 3031 0
-81 -87 3032 0
3034 3035 3036 0
-3031 -88 3034 0
-3031 -89 3035 0
-3031 -90 3036 0
-3032 -88 3035 0
-3032 -89 3036 0
-3032 -90 3034 0
-3033 -88 3036 0
-3033 -89 3034 0
-3033 -90 3035 0
3037 3038 3039 0
-3034 -121 3037 0
-3034 -122 3038 0
-3034 -123 3039 0
-3035 -121 3038 0
-3035 -122 3039 0
-3035 -123 3037 0
-3036 -121 3039 0
-3036 -122 3037 0
-3036 -123 3038 0
3040 3041 3042 0
-3037 -124 3040 0
-3037 -125 3041 0
-3037 -126 3042 0
-3038 -124 3041 0
-3038 -125 3042 0
-3038 -126 3040 0
-3039 -124 3042 0
-3039 -125 3040 0
-3039 -126 3041 0
3043 3044 3045 0
-3040 -133 3043 0
-3040 -134 3044 0
-3040 -135 3045 0
-3041 -133 3044 0
-3041 -134 3045 0
-3041 -135 3043 0
-3042 -133 3045 0
-3042 -134 3043 0
-3042 -135 3044 0
3046 3047 3048 0
-82 -85 3046 0
-82 -86 3047 0
-82 -87 3048 0
-83 -85 3047 0
-83 -86 3048 0
-83 -87 3046 0
-84 -85 3048 0
-84 -86 3046 0
-84 -87 3047 0
3049 3050 3051 0
-3046 -88 3049 0
-3046 -89 3050 0
-3046 -90 3051 0
-3047 -88 3050 0
-3047 -89 3051 0
-3047 -90 3049 0
-3048 -88 3051 0
-3048 -89 3049 0
-3048 -90 3050 0
3052 3053 3054 0
-3049 -127 3052 0
-3049 -128 3053 0
-3049 -129 3054 0
-3050 -127 3053 0
-3050 -128 3054 0
-3050 -129 3052 0
-3051 -127 3054 0
-3051 -128 3052 0
-3051 -129 3053 0
3055 3056 3057 0
-3052 -130 3055 0
-3052 -131 3056 0
-3052 -132 3057 0
-3053 -130 3056 0
-3053 -131 3057 0
-3053 -132 3055 0
-3054 -130 3057 0
-3054 -131 3055 0
-3054 -132 3056 0
3058 3059 3060 0
-3055 -133 3058 0
-3055 -134 3059 0
-3055 -135 3060 0
-3056 -133 3059 0
-3056 -134 3060 0
-3056 -135 3058 0
-3057 -133 3060 0
-3057 -134 3058 0
-3057 -135 3059 0
3061 3062 3063 0
-91 -94 3061 0
-91 -95 3062 0
-91 -96 3063 0
-92 -94 3062 0
-92 -95 3063 0
-92 -96 3061 0
-93 -94 3063 0
-93 -95 3061 0
-93 -96 3062 0
3064 3065 3066 0
-3061 -97 3064 0
-3061 -98 3065 0
-3061 -99 3066 0
-3062 -97 3065 0
-3062 -98 3066 0
-3062 -99 3064 0
-3063 -97 3066 0
-3063 -98 3064 0
-3063 -99 3065 0
3067 3068 3069 0
-3064 -106 3067 0
-3064 -107 3068 0
-3064 -108 3069 0
-3065 -106 3068 0
-3065 -107 3069 0
-3065 -108 3067 0
-3066 -106 3069 0
-3066 -107 3067 0
-3066 -108 3068 0
3070 3071 3072 0
-3067 -109 3070 0
-3067 -110 3071 0
-3067 -111 3072 0
-3068 -109 3071 0
-3068 -110 3072 0
-3068 -111 3070 0
-3069 -109 3072 0
-3069 -110 3070 0
-3069 -111 3071 0
3073 3074 3075 0
-3070 -118 3073 0
-3070 -119 3074 0
-3070 -120 3075 0
-3071 -118 3074 0
-3071 -119 3075 0
-3071 -120 3073 0
-3072 -118 3075 0
-3072 -119 3073 0
-3072 -120 3074 0
3076 3077 3078 0
-91 -94 3076 0
-91 -95 3077 0
-91 -96 3078 0
-92 -94 3077 0
-92 -95 3078 0
-92 -96 3076 0
-93 -94 3078 0
-93 -95 3076 0
-93 -96 3077 0
3079 3080 3081 0
-3076 -100 3079 0
-3076 -101 3080 0
-3076 -102 3081 0
-3077 -100 3080 0
-3077 -101 3081 0
-3077 -102 3079 0
-3078 -100 3081 0
-3078 -101 3079 0
-3078 -102 3080 0
3082 3083 3084 0
-3079 -106 3082 0
-3079 -107 3083 0
-3079 -108 3084 0
-3080 -106 3083 0
-3080 -107 3084 0
-3080 -108 3082 0
-3081 -106 3084 0
-3081 -107 3082 0
-3081 -108 3083 0
3085 3086 3087 0
-3082 -112 3085 0
-3082 -113 3086 0
-3082 -114 3087 0
-3083 -112 3086 0
-3083 -113 3087 0
-3083 -114 3085 0
-3084 -112 3087 0
-3084 -113 3085 0
-3084 -114 3086 0
3088 3089 3090 0
-3085 -121 3088 0
-3085 -122 3089 0
-3085 -123 3090 0
-3086 -121 3089 0
-3086 -122 3090 0
-3086 -123 3088 0
-3087 -121 3090 0
-3087 -122 3088 0
-3087 -123 3089 0
3091 3092 3093 0
-91 -94 3091 0
-91 -95 3092 0
-91 -96 3093 0
-92 -94 3092 0
-92 -95 3093 0
-92 -96 3091 0
-93 -94 3093 0
-93 -95 3091 0
-93 -96 3092 0
3094 3095 3096 0
-3091 -103 3094 0
-3091 -104 3095 0
-3091 -105 3096 0
-3092 -103 3095 0
-3092 -104 3096 0
-3092 -105 3094 0
-3093 -103 3096 0
-3093 -104 3094 0
-3093 -105 3095 0
3097 3098 3099 0
-3094 -106 3097 0
-3094 -107 3098 0
-3094 -108 3099 0
-3095 -106 3098 0
-3095 -107 3099 0
-3095 -108 3097 0
-3096 -106 3099 0
-3096 -107 3097 0
-3096 -108 3098 0
3100 3101 3102 0
-3097 -115 3100 0
-3097 -116 3101 0
-3097 -117 3102 0
-3098 -115 3101 0
-3098 -116 3102 0
-3098 -117 3100 0
-3099 -115 3102 0
-3099 -116 3100 0
-3099 -117 3101 0
3103 3104 3105 0
-3100 -124 3103 0
-3100 -125 3104 0
-3100 -126 3105 0
-3101 -124 3104 0
-3101 -125 3105 0
-3101 -126 3103 0
-3102 -124 3105 0
-3102 -125 3103 0
-3102 -126 3104 0
3106 3107 3108 0
-91 -97 3106 0
-91 -98 3107 0
-91 -99 3108 0
-92 -97 3107 0
-92 -98 3108 0
-92 -99 3106 0
-93 -97 3108 0
-93 -98 3106 0
-93 -99 3107 0
3109 3110 3111 0
-3106 -100 3109 0
-3106 -101 3110 0
-3106 -102 3111 0
-3107 -100 3110 0
-3107 -101 3111 0
-3107 -102 3109 0
-3108 -100 3111 0
-3108 -101 3109 0
-3108 -102 3110 0
3112 3113 3114 0
-3109 -109 3112 0
-3109 -110 3113 0
-3109 -111 3114 0
-3110 -109 3113 0
-3110 -110 3114 0
-3110 -111 3112 0
-3111 -109 3114 0
-3111 -110 3112 0
-3111 -111 3113 0
3115 3116 3117 0
-3112 -112 3115 0
-3112 -113 3116 0
-3112 -114 3117 0
-3113 -112 3116 0
-3113 -113 3117 0
-3113 -114 3115 0
-3114 -112 3117 0
-3114 -113 3115 0
-3114 -114 3116 0
3118 3119 3120 0
-3115 -127 3118 0
-3115 -128 3119 0
-3115 -129 3120 0
-3116 -127 3119 0
-3116 -128 3120 0
-3116 -129 3118 0
-3117 -127 3120 0
-3117 -128 3118 0
-3117 -129 3119 0
3121 3122 3123 0
-91 -97 3121 0
-91 -98 3122 0
-91 -99 3123 0
-92 -97 3122 0
-92 -98 3123 0
-92 -99 3121 0
-93 -97 3123 0
-93 -98 3121 0
-93 -99 3122 0
3124 3125 3126 0
-3121 -103 3124 0
-3121 -104 3125 0
-3121 -105 3126 0
-3122 -103 3125 0
-3122 -104 3126 0
-3122 -105 3124 0
-3123 -103 3126 0
-3123 -104 3124 0
-3123 -105 3125 0
3127 3128 3129 0
-3124 -109 3127 0
-3124 -110 3128 0
-3124 -111 3129 0
-3125 -109 3128 0
-3125 -110 3129 0
-3125 -111 3127 0
-3126 -109 3129 0
-3126 -110 3127 0
-3126 -111 3128 0
3130 3131 3132 0
-3127 -115 3130 0
-3127 -116 3131 0
-3127 -117 3132 0
-3128 -115 3131 0
-3128 -116 3132 0
-3128 -117 3130 0
-3129 -115 3132 0
-3129 -116 3130 0
-3129 -117 3131 0
3133 3134 3135 0
-3130 -130 3133 0
-3130 -131 3134 0
-3130 -132 3135 0
-3131 -130 3134 0
-3131 -131 3135 0
-3131 -132 3133 0
-3132 -130 3135 0
-3132 -131 3133 0
-3132 -132 3134 0
3136 3137 3138 0
-91 -100 3136 0
-91 -101 3137 0
-91 -102 3138 0
-92 -100 3137 0
-92 -101 3138 0
-92 -102 3136 0
-93 -100 3138 0
-93 -101 3136 0
-93 -102 3137 0
3139 3140 3141 0
-3136 -103 3139 0
-3136 -104 3140 0
-3136 -105 3141 0
-3137 -103 3140 0
-3137 -104 3141 0
-3137 -105 3139 0
-3138 -103 3141 0
-3138 -104 3139 0
-3138 -105 3140 0
3142 3143 3144 0
-3139 -112 3142 0
-3139 -113 3143 0
-3139 -114 3144 0
-3140 -112 3143 0
-3140 -113 3144 0
-3140 -114 3142 0
-3141 -112 3144 0
-3141 -113 3142 0
-3141 -114 3143 0
3145 3146 3147 0
-3142 -115 3145 0
-3142 -116 3146 0
-3142 -117 3147 0
-3143 -115 3146 0
-3143 -116 3147 0
-3143 -117 3145 0
-3144 -115 3147 0
-3144 -116 3145 0
-3144 -117 3146 0
3148 3149 3150 0
-3145 -133 3148 0
-3145 -134 3149 0
-3145 -135 3150 0
-3146 -133 3149 0
-3146 -134 3150 0
-3146 -135 3148 0
-3147 -133 3150 0
-3147 -134 3148 0
-3147 -135 3149 0
3151 3152 3153 0
-94 -97 3151 0
-94 -98 3152 0
-94 -99 3153 0
-95 -97 3152 0
-95 -98 3153 0
-95 -99 3151 0
-96 -97 3153 0
-96 -98 3151 0
-96 -99 3152 0
3154 3155 3156 0
-3151 -100 3154 0
-3151 -101 3155 0
-3151 -102 3156 0
-3152 -100 3155 0
-3152 -101 3156 0
-3152 -102 3154 0
-3153 -100 3156 0
-3153 -101 3154 0
-3153 -102 3155 0
3157 3158 3159 0
-3154 -118 3157 0
-3154 -119 3158 0
-3154 -120 3159 0
-3155 -118 3158 0
-3155 -119 3159 0
-3155 -120 3157 0
-3156 -118 3159 0
-3156 -119 3157 0
-3156 -120 3158 0
3160 3161 3162 0
-3157 -121 3160 0
-3157 -122 3161 0
-3157 -123 3162 0
-3158 -121 3161 0
-3158 -122 3162 0
-3158 -123 3160 0
-3159 -121 3162 0
-3159 -122 3160 0
-3159 -123 3161 0
3163 3164 3165 0
-3160 -127 3163 0
-3160 -128 3164 0
-3160 -129 3165 0
-3161 -127 3164 0
-3161 -128 3165 0
-3161 -129 3163 0
-3162 -127 3165 0
-3162 -128 3163 0
-3162 -129 3164 0
3166 3167 3168 0
-94 -97 3166 0
-94 -98 3167 0
-94 -99 3168 0
-95 -97 3167 0
-95 -98 3168 0
-95 -99 3166 0
-96 -97 3168 0
-96 -98 3166 0
-96 -99 3167 0
3169 3170 3171 0
-3166 -103 3169 0
-3166 -104 3170 0
-3166 -105 3171 0
-3167 -103 3170 0
-3167 -104 3171 0
-3167 -105 3169 0
-3168 -103 3171 0
-3168 -104 3169 0
-3168 -105 3170 0
3172 3173 3174 0
-3169 -118 3172 0
-3169 -119 3173 0
-3169 -120 3174 0
-3170 -118 3173 0
-3170 -119 3174 0
-3170 -120 3172 0
-3171 -118 3174 0
-3171 -119 3172 0
-3171 -120 3173 0
3175 3176 3177 0
-3172 -124 3175 0
-3172 -125 3176 0
-3172 -126 3177 0
-3173 -124 3176 0
-3173 -125 3177 0
-3173 -126 3175 0
-3174 -124 3177 0
-3174 -125 3175 0
-3174 -126 3176 0
3178 3179 3180 0
-3175 -130 3178 0
-3175 -131 3179 0
-3175 -132 3180 0
-3176 -130 3179 0
-3176 -131 3180 0
-3176 -132 3178 0
-3177 -130 3180 0
-3177 -131 3178 0
-3177 -132 3179 0
3181 3182 3183 0
-94 -100 3181 0
-94 -101 3182 0
-94 -102 3183 0
-95 -100 3182 0
-95 -101 3183 0
-95 -102 3181 0
-96 -100 3183 0
-96 -101 3181 0
-96 -102 3182 0
3184 3185 3186 0
-3181 -103 3184 0
-3181 -104 3185 0
-3181 -105 3186 0
-3182 -103 3185 0
-3182 -104 3186 0
-3182 -105 3184 0
-3183 -103 3186 0
-3183 -104 3184 0
-3183 -105 3185 0
3187 3188 3189 0
-3184 -121 3187 0
-3184 -122 3188 0
-3184 -123 3189 0
-3185 -121 3188 0
-3185 -122 3189 0
-3185 -123 3187 0
-3186 -121 3189 0
-3186 -122 3187 0
-3186 -123 3188 0
3190 3191 3192 0
-3187 -124 3190 0
-3187 -125 3191 0
-3187 -126 3192 0
-3188 -124 3191 0
-3188 -125 3192 0
-3188 -126 3190 0
-3189 -124 3192 0
-3189 -125 3190 0
-3189 -126 3191 0
3193 3194 3195 0
-3190 -133 3193 0
-3190 -134 3194 0
-3190 -135 3195 0
-3191 -133 3194 0
-3191 -134 3195 0
-3191 -135 3193 0
-3192 -133 3195 0
-3192 -134 3193 0
-3192 -135 3194 0
3196 3197 3198 0
-97 -100 3196 0
-97 -101 3197 0
-97 -102 3198 0
-98 -100 3197 0
-98 -101 3198 0
-98 -102 3196 0
-99 -100 3198 0
-99 -101 3196 0
-99 -102 3197 0
3199 3200 3201 0
-3196 -103 3199 0
-3196 -104 3200 0
-3196 -105 3201 0
-3197 -103 3200 0
-3197 -104 3201 0
-3197 -105 3199 0
-3198 -103 3201 0
-3198 -104 3199 0
-3198 -105 3200 0
3202 3203 3204 0
-3199 -127 3202 0
-3199 -128 3203 0
-3199 -129 3204 0
-3200 -127 3203 0
-3200 -128 3204 0
-3200 -129 3202 0
-3201 -127 3204 0
-3201 -128 3202 0
-3201 -129 3203 0
3205 3206 3207 0
-3202 -130 3205 0
-3202 -131 3206 0
-3202 -132 3207 0
-3203 -130 3206 0
-3203 -131 3207 0
-3203 -132 3205 0
-3204 -130 3207 0
-3204 -131 3205 0
-3204 -132 3206 0
3208 3209 3210 0
-3205 -133 3208 0
-3205 -134 3209 0
-3205 -135 3210 0
-3206 -133 3209 0
-3206 -134 3210 0
-3206 -135 3208 0
-3207 -133 3210 0
-3207 -134 3208 0
-3207 -135 3209 0
3211 3212 3213 0
-106 -109 3211 0
-106 -110 3212 0
-106 -111 3213 0
-107 -109 3212 0
-107 -110 3213 0
-107 -111 3211 0
-108 -109 3213 0
-108 -110 3211 0
-108 -111 3212 0
3214 3215 3216 0
-3211 -112 3214 0
-3211 -113 3215 0
-3211 -114 3216 0
-3212 -112 3215 0
-3212 -113 3216 0
-3212 -114 3214 0
-3213 -112 3216 0
-3213 -113 3214 0
-3213 -114 3215 0
3217 3218 3219 0
-3214 -118 3217 0
-3214 -119 3218 0
-3214 -120 3219 0
-3215 -118 3218 0
-3215 -119 3219 0
-3215 -120 3217 0
-3216 -118 3219 0
-3216 -119 3217 0
-3216 -120 3218 0
3220 3221 3222 0
-3217 -121 3220 0
-3217 -122 3221 0
-3217 -123 3222 0
-3218 -121 3221 0
-3218 -122 3222 0
-3218 -123 3220 0
-3219 -121 3222 0
-3219 -122 3220 0
-3219 -123 3221 0
3223 3224 3225 0
-3220 -127 3223 0
-3220 -128 3224 0
-3220 -129 3225 0
-3221 -127 3224 0
-3221 -128 3225 0
-3221 -129 3223 0
-3222 -127 3225 0
-3222 -128 3223 0
-3222 -129 3224 0
3226 3227 3228 0
-106 -109 3226 0
-106 -110 3227 0
-106 -111 3228 0
-107 -109 3227 0
-107 -110 3228 0
-107 -111 3226 0
-108 -109 3228 0
-108 -110 3226 0
-108 -111 3227 0
3229 3230 3231 0
-3226 -115 3229 0
-3226 -116 3230 0
-3226 -117 3231 0
-3227 -115 3230 0
-3227 -116 3231 0
-3227 -117 3229 0
-3228 -115 3231 0
-3228 -116 3229 0
-3228 -117 3230 0
3232 3233 3234 0
-3229 -118 3232 0
-3229 -119 3233 0
-3229 -120 3234 0
-3230 -118 3233 0
-3230 -119 3234 0
-3230 -120 3232 0
-3231 -118 3234 0
-3231 -119 3232 0
-3231 -120 3233 0
3235 3236 3237 0
-3232 -124 3235 0
-3232 -125 3236 0
-3232 -126 3237 0
-3233 -124 3236 0
-3233 -125 3237 0
-3233 -126 3235 0
-3234 -124 3237 0
-3234 -125 3235 0
-3234 -126 3236 0
3238 3239 3240 0
-3235 -130 3238 0
-3235 -131 3239 0
-3235 -132 3240 0
-3236 -130 3239 0
-3236 -131 3240 0
-3236 -132 3238 0
-3237 -130 3240 0
-3237 -131 3238 0
-3237 -132 3239 0
3241 3242 3243 0
-106 -112 3241 0
-106 -113 3242 0
-106 -114 3243 0
-107 -112 3242 0
-107 -113 3243 0
-107 -114 3241 0
-108 -112 3243 0
-108 -113 3241 0
-108 -114 3242 0
3244 3245 3246 0
-3241 -115 3244 0
-3241 -116 3245 0
-3241 -117 3246 0
-3242 -115 3245 0
-3242 -116 3246 0
-3242 -117 3244 0
-3243 -115 3246 0
-3243 -116 3244 0
-3243 -117 3245 0
3247 3248 3249 0
-3244 -121 3247 0
-3244 -122 3248 0
-3244 -123 3249 0
-3245 -121 3248 0
-3245 -122 3249 0
-3245 -123 3247 0
-3246 -121 3249 0
-3246 -122 3247 0
-3246 -123 3248 0
3250 3251 3252 0
-3247 -124 3250 0
-3247 -125 3251 0
-3247 -126 3252 0
-3248 -124 3251 0
-3248 -125 3252 0
-3248 -126 3250 0
-3249 -124 3252 0
-3249 -125 3250 0
-3249 -126 3251 0
3253 3254 3255 0
-3250 -133 3253 0
-3250 -134 3254 0
-3250 -135 3255 0
-3251 -133 3254 0
-3251 -134 3255 0
-3251 -135 3253 0
-3252 -133 3255 0
-3252 -134 3253 0
-3252 -135 3254 0
3256 3257 3258 0
-109 -112 3256 0
-109 -113 3257 0
-109 -114 3258 0
-110 -112 3257 0
-110 -113 3258 0
-110 -114 3256 0
-111 -112 3258 0
-111 -113 3256 0
-111 -114 3257 0
3259 3260 3261 0
-3256 -115 3259 0
-3256 -116 3260 0
-3256 -117 3261 0
-3257 -115 3260 0
-3257 -116 3261 0
-3257 -117 3259 0
-3258 -115 3261 0
-3258 -116 3259 0
-3258 -117 3260 0
3262 3263 3264 0
-3259 -127 3262 0
-3259 -128 3263 0
-3259 -129 3264 0
-3260 -127 3263 0
-3260 -128 3264 0
-3260 -129 3262 0
-3261 -127 3264 0
-3261 -128 3262 0
-3261 -129 3263 0
3265 3266 3267 0
-3262 -130 3265 0
-3262 -131 3266 0
-3262 -132 3267 0
-3263 -130 3266 0
-3263 -131 3267 0
-3263 -132 3265 0
-3264 -130 3267 0
-3264 -131 3265 0
-3264 -132 3266 0
3268 3269 3270 0
-3265 -133 3268 0
-3265 -134 3269 0
-3265 -135 3270 0
-3266 -133 3269 0
-3266 -134 3270 0
-3266 -135 3268 0
-3267 -133 3270 0
-3267 -134 3268 0
-3267 -135 3269 0
3271 3272 3273 0
-118 -121 3271 0
-118 -122 3272 0
-118 -123 3273 0
-119 -121 3272 0
-119 -122 3273 0
-119 -123 3271 0
-120 -121 3273 0
-120 -122 3271 0
-120 -123 3272 0
3274 3275 3276 0
-3271 -124 3274 0
-3271 -125 3275 0
-3271 -126 3276 0
-3272 -124 3275 0
-3272 -125 3276 0
-3272 -126 3274 0
-3273 -124 3276 0
-3273 -125 3274 0
-3273 -126 3275 0
3277 3278 3279 0
-3274 -127 3277 0
-3274 -128 3278 0
-3274 -129 3279 0
-3275 -127 3278 0
-3275 -128 3279 0
-3275 -129 3277 0
-3276 -127 3279 0
-3276 -128 3277 0
-3276 -129 3278 0
3280 3281 3282 0
-3277 -130 3280 0
-3277 -131 3281 0
-3277 -132 3282 0
-3278 -130 3281 0
-3278 -131 3282 0
-3278 -132 3280 0
-3279 -130 3282 0
-3279 -131 3280 0
-3279 -132 3281 0
3283 3284 3285 0
-3280 -133 3283 0
-3280 -134 3284 0
-3280 -135 3285 0
-3281 -133 3284 0
-3281 -134 3285 0
-3281 -135 3283 0
-3282 -133 3285 0
-3282 -134 3283 0
-3282 -135 3284 0
-148 -3073 0
-149 -3075 0
-150 -3074 0
-148 -3088 0
-149 -3090 0
-150 -3089 0
-148 -3103 0
-149 -3105 0
-150 -3104 0
-148 -3118 0
-149 -3120 0
-150 -3119 0
-148 -3133 0
-149 -3135 0
-150 -3134 0
-148 -3148 0
-149 -3150 0
-150 -3149 0
-148 -3163 0
-149 -3165 0
-150 -3164 0
-148 -3178 0
-149 -3180 0
-150 -3179 0
-148 -3193 0
-149 -3195 0
-150 -3194 0
-148 -3208 0
-149 -3210 0
-150 -3209 0
-148 -3223 0
-149 -3225 0
-150 -3224 0
-148 -3238 0
-149 -3240 0
-150 -3239 0
-148 -3253 0
-149 -3255 0
-150 -3254 0
-148 -3268 0
-149 -3270 0
-150 -3269 0
-148 -3283 0
-149 -3285 0
-150 -3284 0
-163 -2923 0
-164 -2925 0
-165 -2924 0
-163 -2938 0
-164 -2940 0
-165 -2939 0
-163 -2953 0
-164 -2955 0
-165 -2954 0
-163 -2968 0
-164 -2970 0
-165 -2969 0
-163 -2983 0
-164 -2985 0
-165 -2984 0
-163 -2998 0
-164 -3000 0
-165 -2999 0
-163 -3013 0
-164 -3015 0
-165 -3014 0
-163 -3028 0
-164 -3030 0
-165 -3029 0
-163 -3043 0
-164 -3045 0
-165 -3044 0
-163 -3058 0
-164 -3060 0
-165 -3059 0
-163 -3223 0
-164 -3225 0
-165 -3224 0
-163 -3238 0
-164 -3240 0
-165 -3239 0
-163 -3253 0
-164 -3255 0
-165 -3254 0
-163 -3268 0
-164 -3270 0
-165 -3269 0
-163 -3283 0
-164 -3285 0
-165 -3284 0
-178 -2833 0
-179 -2835 0
-180 -2834 0
-178 -2848 0
-179 -2850 0
-180 -2849 0
-178 -2863 0
-179 -2865 0
-180 -2864 0
-178 -2878 0
-179 -2880 0
-180 -2879 0
-178 -2893 0
-179 -2895 0
-180 -2894 0
-178 -2908 0
-179 -2910 0
-180 -2909 0
-178 -3013 0
-179 -3015 0
-180 -3014 0
-178 -3028 0
-179 -3030 0
-180 -3029 0
-178 -3043 0
-179 -3045 0
-180 -3044 0
-178 -3058 0
-179 -3060 0
-180 -3059 0
-178 -3163 0
-179 -3165 0
-180 -3164 0
-178 -3178 0
-179 -3180 0
-180 -3179 0
-178 -3193 0
-179 -3195 0
-180 -3194 0
-178 -3208 0
-179 -3210 0
-180 -3209 0
-178 -3283 0
-179 -3285 0
-180 -3284 0
-193 -2788 0
-194 -2790 0
-195 -2789 0
-193 -2803 0
-194 -2805 0
-195 -2804 0
-193 -2818 0
-194 -2820 0
-195 -2819 0
-193 -2878 0
-194 -2880 0
-195 -2879 0
-193 -2893 0
-194 -2895 0
-195 -2894 0
-193 -2908 0
-194 -2910 0
-195 -2909 0
-193 -2968 0
-194 -2970 0
-195 -2969 0
-193 -2983 0
-194 -2985 0
-195 -2984 0
-193 -2998 0
-194 -3000 0
-195 -2999 0
-193 -3058 0
-194 -3060 0
-195 -3059 0
-193 -3118 0
-194 -3120 0
-195 -3119 0
-193 -3133 0
-194 -3135 0
-195 -3134 0
-193 -3148 0
-194 -3150 0
-195 -3149 0
-193 -3208 0
-194 -3210 0
-195 -3209 0
-193 -3268 0
-194 -3270 0
-195 -3269 0
-208 -2773 0
-209 -2775 0
-210 -2774 0
-208 -2803 0
-209 -2805 0
-210 -2804 0
-208 -2818 0
-209 -2820 0
-210 -2819 0
-208 -2848 0
-209 -2850 0
-210 -2849 0
-208 -2863 0
-209 -2865 0
-210 -2864 0
-208 -2908 0
-209 -2910 0
-210 -2909 0
-208 -2938 0
-209 -2940 0
-210 -2939 0
-208 -2953 0
-209 -2955 0
-210 -2954 0
-208 -2998 0
-209 -3000 0
-210 -2999 0
-208 -3043 0
-209 -3045 0
-210 -3044 0
-208 -3088 0
-209 -3090 0
-210 -3089 0
-208 -3103 0
-209 -3105 0
-210 -3104 0
-208 -3148 0
-209 -3150 0
-210 -3149 0
-208 -3193 0
-209 -3195 0
-210 -3194 0
-208 -3253 0
-209 -3255 0
-210 -3254 0
-223 -2773 0
-224 -2775 0
-225 -2774 0
-223 -2788 0
-224 -2790 0
-225 -2789 0
-223 -2818 0
-224 -2820 0
-225 -2819 0
-223 -2833 0
-224 -2835 0
-225 -2834 0
-223 -2863 0
-224 -2865 0
-225 -2864 0
-223 -2893 0
-224 -2895 0
-225 -2894 0
-223 -2923 0
-224 -2925 0
-225 -2924 0
-223 -2953 0
-224 -2955 0
-225 -2954 0
-223 -2983 0
-224 -2985 0
-225 -2984 0
-223 -3028 0
-224 -3030 0
-225 -3029 0
-223 -3073 0
-224 -3075 0
-225 -3074 0
-223 -3103 0
-224 -3105 0
-225 -3104 0
-223 -3133 0
-224 -3135 0
-225 -3134 0
-223 -3178 0
-224 -3180 0
-225 -3179 0
-223 -3238 0
-224 -3240 0
-225 -3239 0
-238 -2773 0
-239 -2775 0
-240 -2774 0
-238 -2788 0
-239 -2790 0
-240 -2789 0
-238 -2803 0
-239 -2805 0
-240 -2804 0
-238 -2833 0
-239 -2835 0
-240 -2834 0
-238 -2848 0
-239 -2850 0
-240 -2849 0
-238 -2878 0
-239 -2880 0
-240 -2879 0
-238 -2923 0
-239 -2925 0
-240 -2924 0
-238 -2938 0
-239 -2940 0
-240 -2939 0
-238 -2968 0
-239 -2970 0
-240 -2969 0
-238 -3013 0
-239 -3015 0
-240 -3014 0
-238 -3073 0
-239 -3075 0
-240 -3074 0
-238 -3088 0
-239 -3090 0
-240 -3089 0
-238 -3118 0
-239 -3120 0
-240 -3119 0
-238 -3163 0
-239 -3165 0
-240 -3164 0
-238 -3223 0
-239 -3225 0
-240 -3224 0
-253 -2623 0
-254 -2625 0
-255 -2624 0
-253 -2638 0
-254 -2640 0
-255 -2639 0
-253 -2653 0
-254 -2655 0
-255 -2654 0
-253 -2668 0
-254 -2670 0
-255 -2669 0
-253 -2683 0
-254 -2685 0
-255 -2684 0
-253 -2698 0
-254 -2700 0
-255 -2699 0
-253 -2713 0
-254 -2715 0
-255 -2714 0
-253 -2728 0
-254 -2730 0
-255 -2729 0
-253 -2743 0
-254 -2745 0
-255 -2744 0
-253 -2758 0
-254 -2760 0
-255 -2759 0
-253 -3223 0
-254 -3225 0
-255 -3224 0
-253 -3238 0
-254 -3240 0
-255 -3239 0
-253 -3253 0
-254 -3255 0
-255 -3254 0
-253 -3268 0
-254 -3270 0
-255 -3269 0
-253 -3283 0
-254 -3285 0
-255 -3284 0
-268 -2533 0
-269 -2535 0
-270 -2534 0
-268 -2548 0
-269 -2550 0
-270 -2549 0
-268 -2563 0
-269 -2565 0
-270 -2564 0
-268 -2578 0
-269 -2580 0
-270 -2579 0
-268 -2593 0
-269 -2595 0
-270 -2594 0
-268 -2608 0
-269 -2610 0
-270 -2609 0
-268 -2713 0
-269 -2715 0
-270 -2714 0
-268 -2728 0
-269 -2730 0
-270 -2729 0
-268 -2743 0
-269 -2745 0
-270 -2744 0
-268 -2758 0
-269 -2760 0
-270 -2759 0
-268 -3163 0
-269 -3165 0
-270 -3164 0
-268 -3178 0
-269 -3180 0
-270 -3179 0
-268 -3193 0
-269 -3195 0
-270 -3194 0
-268 -3208 0
-269 -3210 0
-270 -3209 0
-268 -3283 0
-269 -3285 0
-270 -3284 0
-283 -2488 0
-284 -2490 0
-285 -2489 0
-283 -2503 0
-284 -2505 0
-285 -2504 0
-283 -2518 0
-284 -2520 0
-285 -2519 0
-283 -2578 0
-284 -2580 0
-285 -2579 0
-283 -2593 0
-284 -2595 0
-285 -2594 0
-283 -2608 0
-284 -2610 0
-285 -2609 0
-283 -2668 0
-284 -2670 0
-285 -2669 0
-283 -2683 0
-284 -2685 0
-285 -2684 0
-283 -2698 0
-284 -2700 0
-285 -2699 0
-283 -2758 0
-284 -2760 0
-285 -2759 0
-283 -3118 0
-284 -3120 0
-285 -3119 0
-283 -3133 0
-284 -3135 0
-285 -3134 0
-283 -3148 0
-284 -3150 0
-285 -3149 0
-283 -3208 0
-284 -3210 0
-285 -3209 0
-283 -3268 0
-284 -3270 0
-285 -3269 0
-298 -2473 0
-299 -2475 0
-300 -2474 0
-298 -2503 0
-299 -2505 0
-300 -2504 0
-298 -2518 0
-299 -2520 0
-300 -2519 0
-298 -2548 0
-299 -2550 0
-300 -2549 0
-298 -2563 0
-299 -2565 0
-300 -2564 0
-298 -2608 0
-299 -2610 0
-300 -2609 0
-298 -2638 0
-299 -2640 0
-300 -2639 0
-298 -2653 0
-299 -2655 0
-300 -2654 0
-298 -2698 0
-299 -2700 0
-300 -2699 0
-298 -2743 0
-299 -2745 0
-300 -2744 0
-298 -3088 0
-299 -3090 0
-300 -3089 0
-298 -3103 0
-299 -3105 0
-300 -3104 0
-298 -3148 0
-299 -3150 0
-300 -3149 0
-298 -3193 0
-299 -3195 0
-300 -3194 0
-298 -3253 0
-299 -3255 0
-300 -3254 0
-313 -2473 0
-314 -2475 0
-315 -2474 0
-313 -2488 0
-314 -2490 0
-315 -2489 0
-313 -2518 0
-314 -2520 0
-315 -2519 0
-313 -2533 0
-314 -2535 0
-315 -2534 0
-313 -2563 0
-314 -2565 0
-315 -2564 0
-313 -2593 0
-314 -2595 0
-315 -2594 0
-313 -2623 0
-314 -2625 0
-315 -2624 0
-313 -2653 0
-314 -2655 0
-315 -2654 0
-313 -2683 0
-314 -2685 0
-315 -2684 0
-313 -2728 0
-314 -2730 0
-315 -2729 0
-313 -3073 0
-314 -3075 0
-315 -3074 0
-313 -3103 0
-314 -3105 0
-315 -3104 0
-313 -3133 0
-314 -3135 0
-315 -3134 0
-313 -3178 0
-314 -3180 0
-315 -3179 0
-313 -3238 0
-314 -3240 0
-315 -3239 0
-328 -2473 0
-329 -2475 0
-330 -2474 0
-328 -2488 0
-329 -2490 0
-330 -2489 0
-328 -2503 0
-329 -2505 0
-330 -2504 0
-328 -2533 0
-329 -2535 0
-330 -2534 0
-328 -2548 0
-329 -2550 0
-330 -2549 0
-328 -2578 0
-329 -2580 0
-330 -2579 0
-328 -2623 0
-329 -2625 0
-330 -2624 0
-328 -2638 0
-329 -2640 0
-330 -2639 0
-328 -2668 0
-329 -2670 0
-330 -2669 0
-328 -2713 0
-329 -2715 0
-330 -2714 0
-328 -3073 0
-329 -3075 0
-330 -3074 0
-328 -3088 0
-329 -3090 0
-330 -3089 0
-328 -3118 0
-329 -3120 0
-330 -3119 0
-328 -3163 0
-329 -3165 0
-330 -3164 0
-328 -3223 0
-329 -3225 0
-330 -3224 0
-343 -2383 0
-344 -2385 0
-345 -2384 0
-343 -2398 0
-344 -2400 0
-345 -2399 0
-343 -2413 0
-344 -2415 0
-345 -2414 0
-343 -2428 0
-344 -2430 0
-345 -2429 0
-343 -2443 0
-344 -2445 0
-345 -2444 0
-343 -2458 0
-344 -2460 0
-345 -2459 0
-343 -2713 0
-344 -2715 0
-345 -2714 0
-343 -2728 0
-344 -2730 0
-345 -2729 0
-343 -2743 0
-344 -2745 0
-345 -2744 0
-343 -2758 0
-344 -2760 0
-345 -2759 0
-343 -3013 0
-344 -3015 0
-345 -3014 0
-343 -3028 0
-344 -3030 0
-345 -3029 0
-343 -3043 0
-344 -3045 0
-345 -3044 0
-343 -3058 0
-344 -3060 0
-345 -3059 0
-343 -3283 0
-344 -3285 0
-345 -3284 0
-358 -2338 0
-359 -2340 0
-360 -2339 0
-358 -2353 0
-359 -2355 0
-360 -2354 0
-358 -2368 0
-359 -2370 0
-360 -2369 0
-358 -2428 0
-359 -2430 0
-360 -2429 0
-358 -2443 0
-359 -2445 0
-360 -2444 0
-358 -2458 0
-359 -2460 0
-360 -2459 0
-358 -2668 0
-359 -2670 0
-360 -2669 0
-358 -2683 0
-359 -2685 0
-360 -2684 0
-358 -2698 0
-359 -2700 0
-360 -2699 0
-358 -2758 0
-359 -2760 0
-360 -2759 0
-358 -2968 0
-359 -2970 0
-360 -2969 0
-358 -2983 0
-359 -2985 0
-360 -2984 0
-358 -2998 0
-359 -3000 0
-360 -2999 0
-358 -3058 0
-359 -3060 0
-360 -3059 0
-358 -3268 0
-359 -3270 0
-360 -3269 0
-373 -2323 0
-374 -2325 0
-375 -2324 0
-373 -2353 0
-374 -2355 0
-375 -2354 0
-373 -2368 0
-374 -2370 0
-375 -2369 0
-373 -2398 0
-374 -2400 0
-375 -2399 0
-373 -2413 0
-374 -2415 0
-375 -2414 0
-373 -2458 0
-374 -2460 0
-375 -2459 0
-373 -2638 0
-374 -2640 0
-375 -2639 0
-373 -2653 0
-374 -2655 0
-375 -2654 0
-373 -2698 0
-374 -2700 0
-375 -2699 0
-373 -2743 0
-374 -2745 0
-375 -2744 0
-373 -2938 0
-374 -2940 0
-375 -2939 0
-373 -2953 0
-374 -2955 0
-375 -2954 0
-373 -2998 0
-374 -3000 0
-375 -2999 0
-373 -3043 0
-374 -3045 0
-375 -3044 0
-373 -3253 0
-374 -3255 0
-375 -3254 0
-388 -2323 0
-389 -2325 0
-390 -2324 0
-388 -2338 0
-389 -2340 0
-390 -2339 0
-388 -2368 0
-389 -2370 0
-390 -2369 0
-388 -2383 0
-389 -2385 0
-390 -2384 0
-388 -2413 0
-389 -2415 0
-390 -2414 0
-388 -2443 0
-389 -2445 0
-390 -2444 0
-388 -2623 0
-389 -2625 0
-390 -2624 0
-388 -2653 0
-389 -2655 0
-390 -2654 0
-388 -2683 0
-389 -2685 0
-390 -2684 0
-388 -2728 0
-389 -2730 0
-390 -2729 0
-388 -2923 0
-389 -2925 0
-390 -2924 0
-388 -2953 0
-389 -2955 0
-390 -2954 0
-388 -2983 0
-389 -2985 0
-390 -2984 0
-388 -3028 0
-389 -3030 0
-390 -3029 0
-388 -3238 0
-389 -3240 0
-390 -3239 0
-403 -2323 0
-404 -2325 0
-405 -2324 0
-403 -2338 0
-404 -2340 0
-405 -2339 0
-403 -2353 0
-404 -2355 0
-405 -2354 0
-403 -2383 0
-404 -2385 0
-405 -2384 0
-403 -2398 0
-404 -2400 0
-405 -2399 0
-403 -2428 0
-404 -2430 0
-405 -2429 0
-403 -2623 0
-404 -2625 0
-405 -2624 0
-403 -2638 0
-404 -2640 0
-405 -2639 0
-403 -2668 0
-404 -2670 0
-405 -2669 0
-403 -2713 0
-404 -2715 0
-405 -2714 0
-403 -2923 0
-404 -2925 0
-405 -2924 0
-403 -2938 0
-404 -2940 0
-405 -2939 0
-403 -2968 0
-404 -2970 0
-405 -2969 0
-403 -3013 0
-404 -3015 0
-405 -3014 0
-403 -3223 0
-404 -3225 0
-405 -3224 0
-418 -2278 0
-419 -2280 0
-420 -2279 0
-418 -2293 0
-419 -2295 0
-420 -2294 0
-418 -2308 0
-419 -2310 0
-420 -2309 0
-418 -2428 0
-419 -2430 0
-420 -2429 0
-418 -2443 0
-419 -2445 0
-420 -2444 0
-418 -2458 0
-419 -2460 0
-420 -2459 0
-418 -2578 0
-419 -2580 0
-420 -2579 0
-418 -2593 0
-419 -2595 0
-420 -2594 0
-418 -2608 0
-419 -2610 0
-420 -2609 0
-418 -2758 0
-419 -2760 0
-420 -2759 0
-418 -2878 0
-419 -2880 0
-420 -2879 0
-418 -2893 0
-419 -2895 0
-420 -2894 0
-418 -2908 0
-419 -2910 0
-420 -2909 0
-418 -3058 0
-419 -3060 0
-420 -3059 0
-418 -3208 0
-419 -3210 0
-420 -3209 0
-433 -2263 0
-434 -2265 0
-435 -2264 0
-433 -2293 0
-434 -2295 0
-435 -2294 0
-433 -2308 0
-434 -2310 0
-435 -2309 0
-433 -2398 0
-434 -2400 0
-435 -2399 0
-433 -2413 0
-434 -2415 0
-435 -2414 0
-433 -2458 0
-434 -2460 0
-435 -2459 0
-433 -2548 0
-434 -2550 0
-435 -2549 0
-433 -2563 0
-434 -2565 0
-435 -2564 0
-433 -2608 0
-434 -2610 0
-435 -2609 0
-433 -2743 0
-434 -2745 0
-435 -2744 0
-433 -2848 0
-434 -2850 0
-435 -2849 0
-433 -2863 0
-434 -2865 0
-435 -2864 0
-433 -2908 0
-434 -2910 0
-435 -2909 0
-433 -3043 0
-434 -3045 0
-435 -3044 0
-433 -3193 0
-434 -3195 0
-435 -3194 0
-448 -2263 0
-449 -2265 0
-450 -2264 0
-448 -2278 0
-449 -2280 0
-450 -2279 0
-448 -2308 0
-449 -2310 0
-450 -2309 0
-448 -2383 0
-449 -2385 0
-450 -2384 0
-448 -2413 0
-449 -2415 0
-450 -2414 0
-448 -2443 0
-449 -2445 0
-450 -2444 0
-448 -2533 0
-449 -2535 0
-450 -2534 0
-448 -2563 0
-449 -2565 0
-450 -2564 0
-448 -2593 0
-449 -2595 0
-450 -2594 0
-448 -2728 0
-449 -2730 0
-450 -2729 0
-448 -2833 0
-449 -2835 0
-450 -2834 0
-448 -2863 0
-449 -2865 0
-450 -2864 0
-448 -2893 0
-449 -2895 0
-450 -2894 0
-448 -3028 0
-449 -3030 0
-450 -3029 0
-448 -3178 0
-449 -3180 0
-450 -3179 0
-463 -2263 0
-464 -2265 0
-465 -2264 0
-463 -2278 0
-464 -2280 0
-465 -2279 0
-463 -2293 0
-464 -2295 0
-465 -2294 0
-463 -2383 0
-464 -2385 0
-465 -2384 0
-463 -2398 0
-464 -2400 0
-465 -2399 0
-463 -2428 0
-464 -2430 0
-465 -2429 0
-463 -2533 0
-464 -2535 0
-465 -2534 0
-463 -2548 0
-464 -2550 0
-465 -2549 0
-463 -2578 0
-464 -2580 0
-465 -2579 0
-463 -2713 0
-464 -2715 0
-465 -2714 0
-463 -2833 0
-464 -2835 0
-465 -2834 0
-463 -2848 0
-464 -2850 0
-465 -2849 0
-463 -2878 0
-464 -2880 0
-465 -2879 0
-463 -3013 0
-464 -3015 0
-465 -3014 0
-463 -3163 0
-464 -3165 0
-465 -3164 0
-478 -2248 0
-479 -2250 0
-480 -2249 0
-478 -2293 0
-479 -2295 0
-480 -2294 0
-478 -2308 0
-479 -2310 0
-480 -2309 0
-478 -2353 0
-479 -2355 0
-480 -2354 0
-478 -2368 0
-479 -2370 0
-480 -2369 0
-478 -2458 0
-479 -2460 0
-480 -2459 0
-478 -2503 0
-479 -2505 0
-480 -2504 0
-478 -2518 0
-479 -2520 0
-480 -2519 0
-478 -2608 0
-479 -2610 0
-480 -2609 0
-478 -2698 0
-479 -2700 0
-480 -2699 0
-478 -2803 0
-479 -2805 0
-480 -2804 0
-478 -2818 0
-479 -2820 0
-480 -2819 0
-478 -2908 0
-479 -2910 0
-480 -2909 0
-478 -2998 0
-479 -3000 0
-480 -2999 0
-478 -3148 0
-479 -3150 0
-480 -3149 0
-493 -2248 0
-494 -2250 0
-495 -2249 0
-493 -2278 0
-494 -2280 0
-495 -2279 0
-493 -2308 0
-494 -2310 0
-495 -2309 0
-493 -2338 0
-494 -2340 0
-495 -2339 0
-493 -2368 0
-494 -2370 0
-495 -2369 0
-493 -2443 0
-494 -2445 0
-495 -2444 0
-493 -2488 0
-494 -2490 0
-495 -2489 0
-493 -2518 0
-494 -2520 0
-495 -2519 0
-493 -2593 0
-494 -2595 0
-495 -2594 0
-493 -2683 0
-494 -2685 0
-495 -2684 0
-493 -2788 0
-494 -2790 0
-495 -2789 0
-493 -2818 0
-494 -2820 0
-495 -2819 0
-493 -2893 0
-494 -2895 0
-495 -2894 0
-493 -2983 0
-494 -2985 0
-495 -2984 0
-493 -3133 0
-494 -3135 0
-495 -3134 0
-508 -2248 0
-509 -2250 0
-510 -2249 0
-508 -2278 0
-509 -2280 0
-510 -2279 0
-508 -2293 0
-509 -2295 0
-510 -2294 0
-508 -2338 0
-509 -2340 0
-510 -2339 0
-508 -2353 0
-509 -2355 0
-510 -2354 0
-508 -2428 0
-509 -2430 0
-510 -2429 0
-508 -2488 0
-509 -2490 0
-510 -2489 0
-508 -2503 0
-509 -2505 0
-510 -2504 0
-508 -2578 0
-509 -2580 0
-510 -2579 0
-508 -2668 0
-509 -2670 0
-510 -2669 0
-508 -2788 0
-509 -2790 0
-510 -2789 0
-508 -2803 0
-509 -2805 0
-510 -2804 0
-508 -2878 0
-509 -2880 0
-510 -2879 0
-508 -2968 0
-509 -2970 0
-510 -2969 0
-508 -3118 0
-509 -3120 0
-510 -3119 0
-523 -2248 0
-524 -2250 0
-525 -2249 0
-523 -2263 0
-524 -2265 0
-525 -2264 0
-523 -2308 0
-524 -2310 0
-525 -2309 0
-523 -2323 0
-524 -2325 0
-525 -2324 0
-523 -2368 0
-524 -2370 0
-525 -2369 0
-523 -2413 0
-524 -2415 0
-525 -2414 0
-523 -2473 0
-524 -2475 0
-525 -2474 0
-523 -2518 0
-524 -2520 0
-525 -2519 0
-523 -2563 0
-524 -2565 0
-525 -2564 0
-523 -2653 0
-524 -2655 0
-525 -2654 0
-523 -2773 0
-524 -2775 0
-525 -2774 0
-523 -2818 0
-524 -2820 0
-525 -2819 0
-523 -2863 0
-524 -2865 0
-525 -2864 0
-523 -2953 0
-524 -2955 0
-525 -2954 0
-523 -3103 0
-524 -3105 0
-525 -3104 0
-538 -2248 0
-539 -2250 0
-540 -2249 0
-538 -2263 0
-539 -2265 0
-540 -2264 0
-538 -2293 0
-539 -2295 0
-540 -2294 0
-538 -2323 0
-539 -2325 0
-540 -2324 0
-538 -2353 0
-539 -2355 0
-540 -2354 0
-538 -2398 0
-539 -2400 0
-540 -2399 0
-538 -2473 0
-539 -2475 0
-540 -2474 0
-538 -2503 0
-539 -2505 0
-540 -2504 0
-538 -2548 0
-539 -2550 0
-540 -2549 0
-538 -2638 0
-539 -2640 0
-540 -2639 0
-538 -2773 0
-539 -2775 0
-540 -2774 0
-538 -2803 0
-539 -2805 0
-540 -2804 0
-538 -2848 0
-539 -2850 0
-540 -2849 0
-538 -2938 0
-539 -2940 0
-540 -2939 0
-538 -3088 0
-539 -3090 0
-540 -3089 0
-553 -2248 0
-554 -2250 0
-555 -2249 0
-553 -2263 0
-554 -2265 0
-555 -2264 0
-553 -2278 0
-554 -2280 0
-555 -2279 0
-553 -2323 0
-554 -2325 0
-555 -2324 0
-553 -2338 0
-554 -2340 0
-555 -2339 0
-553 -2383 0
-554 -2385 0
-555 -2384 0
-553 -2473 0
-554 -2475 0
-555 -2474 0
-553 -2488 0
-554 -2490 0
-555 -2489 0
-553 -2533 0
-554 -2535 0
-555 -2534 0
-553 -2623 0
-554 -2625 0
-555 -2624 0
-553 -2773 0
-554 -2775 0
-555 -2774 0
-553 -2788 0
-554 -2790 0
-555 -2789 0
-553 -2833 0
-554 -2835 0
-555 -2834 0
-553 -2923 0
-554 -2925 0
-555 -2924 0
-553 -3073 0
-554 -3075 0
-555 -3074 0
-568 -2098 0
-569 -2100 0
-570 -2099 0
-568 -2113 0
-569 -2115 0
-570 -2114 0
-568 -2128 0
-569 -2130 0
-570 -2129 0
-568 -2143 0
-569 -2145 0
-570 -2144 0
-568 -2158 0
-569 -2160 0
-570 -2159 0
-568 -2173 0
-569 -2175 0
-570 -2174 0
-568 -2188 0
-569 -2190 0
-570 -2189 0
-568 -2203 0
-569 -2205 0
-570 -2204 0
-568 -2218 0
-569 -2220 0
-570 -2219 0
-568 -2233 0
-569 -2235 0
-570 -2234 0
-568 -3223 0
-569 -3225 0
-570 -3224 0
-568 -3238 0
-569 -3240 0
-570 -3239 0
-568 -3253 0
-569 -3255 0
-570 -3254 0
-568 -3268 0
-569 -3270 0
-570 -3269 0
-568 -3283 0
-569 -3285 0
-570 -3284 0
-583 -2008 0
-584 -2010 0
-585 -2009 0
-583 -2023 0
-584 -2025 0
-585 -2024 0
-583 -2038 0
-584 -2040 0
-585 -2039 0
-583 -2053 0
-584 -2055 0
-585 -2054 0
-583 -2068 0
-584 -2070 0
-585 -2069 0
-583 -2083 0
-584 -2085 0
-585 -2084 0
-583 -2188 0
-584 -2190 0
-585 -2189 0
-583 -2203 0
-584 -2205 0
-585 -2204 0
-583 -2218 0
-584 -2220 0
-585 -2219 0
-583 -2233 0
-584 -2235 0
-585 -2234 0
-583 -3163 0
-584 -3165 0
-585 -3164 0
-583 -3178 0
-584 -3180 0
-585 -3179 0
-583 -3193 0
-584 -3195 0
-585 -3194 0
-583 -3208 0
-584 -3210 0
-585 -3209 0
-583 -3283 0
-584 -3285 0
-585 -3284 0
-598 -1963 0
-599 -1965 0
-600 -1964 0
-598 -1978 0
-599 -1980 0
-600 -1979 0
-598 -1993 0
-599 -1995 0
-600 -1994 0
-598 -2053 0
-599 -2055 0
-600 -2054 0
-598 -2068 0
-599 -2070 0
-600 -2069 0
-598 -2083 0
-599 -2085 0
-600 -2084 0
-598 -2143 0
-599 -2145 0
-600 -2144 0
-598 -2158 0
-599 -2160 0
-600 -2159 0
-598 -2173 0
-599 -2175 0
-600 -2174 0
-598 -2233 0
-599 -2235 0
-600 -2234 0
-598 -3118 0
-599 -3120 0
-600 -3119 0
-598 -3133 0
-599 -3135 0
-600 -3134 0
-598 -3148 0
-599 -3150 0
-600 -3149 0
-598 -3208 0
-599 -3210 0
-600 -3209 0
-598 -3268 0
-599 -3270 0
-600 -3269 0
-613 -1948 0
-614 -1950 0
-615 -1949 0
-613 -1978 0
-614 -1980 0
-615 -1979 0
-613 -1993 0
-614 -1995 0
-615 -1994 0
-613 -2023 0
-614 -2025 0
-615 -2024 0
-613 -2038 0
-614 -2040 0
-615 -2039 0
-613 -2083 0
-614 -2085 0
-615 -2084 0
-613 -2113 0
-614 -2115 0
-615 -2114 0
-613 -2128 0
-614 -2130 0
-615 -2129 0
-613 -2173 0
-614 -2175 0
-615 -2174 0
-613 -2218 0
-614 -2220 0
-615 -2219 0
-613 -3088 0
-614 -3090 0
-615 -3089 0
-613 -3103 0
-614 -3105 0
-615 -3104 0
-613 -3148 0
-614 -3150 0
-615 -3149 0
-613 -3193 0
-614 -3195 0
-615 -3194 0
-613 -3253 0
-614 -3255 0
-615 -3254 0
-628 -1948 0
-629 -1950 0
-630 -1949 0
-628 -1963 0
-629 -1965 0
-630 -1964 0
-628 -1993 0
-629 -1995 0
-630 -1994 0
-628 -2008 0
-629 -2010 0
-630 -2009 0
-628 -2038 0
-629 -2040 0
-630 -2039 0
-628 -2068 0
-629 -2070 0
-630 -2069 0
-628 -2098 0
-629 -2100 0
-630 -2099 0
-628 -2128 0
-629 -2130 0
-630 -2129 0
-628 -2158 0
-629 -2160 0
-630 -2159 0
-628 -2203 0
-629 -2205 0
-630 -2204 0
-628 -3073 0
-629 -3075 0
-630 -3074 0
-628 -3103 0
-629 -3105 0
-630 -3104 0
-628 -3133 0
-629 -3135 0
-630 -3134 0
-628 -3178 0
-629 -3180 0
-630 -3179 0
-628 -3238 0
-629 -3240 0
-630 -3239 0
-643 -1948 0
-644 -1950 0
-645 -1949 0
-643 -1963 0
-644 -1965 0
-645 -1964 0
-643 -1978 0
-644 -1980 0
-645 -1979 0
-643 -2008 0
-644 -2010 0
-645 -2009 0
-643 -2023 0
-644 -2025 0
-645 -2024 0
-643 -2053 0
-644 -2055 0
-645 -2054 0
-643 -2098 0
-644 -2100 0
-645 -2099 0
-643 -2113 0
-644 -2115 0
-645 -2114 0
-643 -2143 0
-644 -2145 0
-645 -2144 0
-643 -2188 0
-644 -2190 0
-645 -2189 0
-643 -3073 0
-644 -3075 0
-645 -3074 0
-643 -3088 0
-644 -3090 0
-645 -3089 0
-643 -3118 0
-644 -3120 0
-645 -3119 0
-643 -3163 0
-644 -3165 0
-645 -3164 0
-643 -3223 0
-644 -3225 0
-645 -3224 0
-658 -1858 0
-659 -1860 0
-660 -1859 0
-658 -1873 0
-659 -1875 0
-660 -1874 0
-658 -1888 0
-659 -1890 0
-660 -1889 0
-658 -1903 0
-659 -1905 0
-660 -1904 0
-658 -1918 0
-659 -1920 0
-660 -1919 0
-658 -1933 0
-659 -1935 0
-660 -1934 0
-658 -2188 0
-659 -2190 0
-660 -2189 0
-658 -2203 0
-659 -2205 0
-660 -2204 0
-658 -2218 0
-659 -2220 0
-660 -2219 0
-658 -2233 0
-659 -2235 0
-660 -2234 0
-658 -3013 0
-659 -3015 0
-660 -3014 0
-658 -3028 0
-659 -3030 0
-660 -3029 0
-658 -3043 0
-659 -3045 0
-660 -3044 0
-658 -3058 0
-659 -3060 0
-660 -3059 0
-658 -3283 0
-659 -3285 0
-660 -3284 0
-673 -1813 0
-674 -1815 0
-675 -1814 0
-673 -1828 0
-674 -1830 0
-675 -1829 0
-673 -1843 0
-674 -1845 0
-675 -1844 0
-673 -1903 0
-674 -1905 0
-675 -1904 0
-673 -1918 0
-674 -1920 0
-675 -1919 0
-673 -1933 0
-674 -1935 0
-675 -1934 0
-673 -2143 0
-674 -2145 0
-675 -2144 0
-673 -2158 0
-674 -2160 0
-675 -2159 0
-673 -2173 0
-674 -2175 0
-675 -2174 0
-673 -2233 0
-674 -2235 0
-675 -2234 0
-673 -2968 0
-674 -2970 0
-675 -2969 0
-673 -2983 0
-674 -2985 0
-675 -2984 0
-673 -2998 0
-674 -3000 0
-675 -2999 0
-673 -3058 0
-674 -3060 0
-675 -3059 0
-673 -3268 0
-674 -3270 0
-675 -3269 0
-688 -1798 0
-689 -1800 0
-690 -1799 0
-688 -1828 0
-689 -1830 0
-690 -1829 0
-688 -1843 0
-689 -1845 0
-690 -1844 0
-688 -1873 0
-689 -1875 0
-690 -1874 0
-688 -1888 0
-689 -1890 0
-690 -1889 0
-688 -1933 0
-689 -1935 0
-690 -1934 0
-688 -2113 0
-689 -2115 0
-690 -2114 0
-688 -2128 0
-689 -2130 0
-690 -2129 0
-688 -2173 0
-689 -2175 0
-690 -2174 0
-688 -2218 0
-689 -2220 0
-690 -2219 0
-688 -2938 0
-689 -2940 0
-690 -2939 0
-688 -2953 0
-689 -2955 0
-690 -2954 0
-688 -2998 0
-689 -3000 0
-690 -2999 0
-688 -3043 0
-689 -3045 0
-690 -3044 0
-688 -3253 0
-689 -3255 0
-690 -3254 0
-703 -1798 0
-704 -1800 0
-705 -1799 0
-703 -1813 0
-704 -1815 0
-705 -1814 0
-703 -1843 0
-704 -1845 0
-705 -1844 0
-703 -1858 0
-704 -1860 0
-705 -1859 0
-703 -1888 0
-704 -1890 0
-705 -1889 0
-703 -1918 0
-704 -1920 0
-705 -1919 0
-703 -2098 0
-704 -2100 0
-705 -2099 0
-703 -2128 0
-704 -2130 0
-705 -2129 0
-703 -2158 0
-704 -2160 0
-705 -2159 0
-703 -2203 0
-704 -2205 0
-705 -2204 0
-703 -2923 0
-704 -2925 0
-705 -2924 0
-703 -2953 0
-704 -2955 0
-705 -2954 0
-703 -2983 0
-704 -2985 0
-705 -2984 0
-703 -3028 0
-704 -3030 0
-705 -3029 0
-703 -3238 0
-704 -3240 0
-705 -3239 0
-718 -1798 0
-719 -1800 0
-720 -1799 0
-718 -1813 0
-719 -1815 0
-720 -1814 0
-718 -1828 0
-719 -1830 0
-720 -1829 0
-718 -1858 0
-719 -1860 0
-720 -1859 0
-718 -1873 0
-719 -1875 0
-720 -1874 0
-718 -1903 0
-719 -1905 0
-720 -1904 0
-718 -2098 0
-719 -2100 0
-720 -2099 0
-718 -2113 0
-719 -2115 0
-720 -2114 0
-718 -2143 0
-719 -2145 0
-720 -2144 0
-718 -2188 0
-719 -2190 0
-720 -2189 0
-718 -2923 0
-719 -2925 0
-720 -2924 0
-718 -2938 0
-719 -2940 0
-720 -2939 0
-718 -2968 0
-719 -2970 0
-720 -2969 0
-718 -3013 0
-719 -3015 0
-720 -3014 0
-718 -3223 0
-719 -3225 0
-720 -3224 0
-733 -1753 0
-734 -1755 0
-735 -1754 0
-733 -1768 0
-734 -1770 0
-735 -1769 0
-733 -1783 0
-734 -1785 0
-735 -1784 0
-733 -1903 0
-734 -1905 0
-735 -1904 0
-733 -1918 0
-734 -1920 0
-735 -1919 0
-733 -1933 0
-734 -1935 0
-735 -1934 0
-733 -2053 0
-734 -2055 0
-735 -2054 0
-733 -2068 0
-734 -2070 0
-735 -2069 0
-733 -2083 0
-734 -2085 0
-735 -2084 0
-733 -2233 0
-734 -2235 0
-735 -2234 0
-733 -2878 0
-734 -2880 0
-735 -2879 0
-733 -2893 0
-734 -2895 0
-735 -2894 0
-733 -2908 0
-734 -2910 0
-735 -2909 0
-733 -3058 0
-734 -3060 0
-735 -3059 0
-733 -3208 0
-734 -3210 0
-735 -3209 0
-748 -1738 0
-749 -1740 0
-750 -1739 0
-748 -1768 0
-749 -1770 0
-750 -1769 0
-748 -1783 0
-749 -1785 0
-750 -1784 0
-748 -1873 0
-749 -1875 0
-750 -1874 0
-748 -1888 0
-749 -1890 0
-750 -1889 0
-748 -1933 0
-749 -1935 0
-750 -1934 0
-748 -2023 0
-749 -2025 0
-750 -2024 0
-748 -2038 0
-749 -2040 0
-750 -2039 0
-748 -2083 0
-749 -2085 0
-750 -2084 0
-748 -2218 0
-749 -2220 0
-750 -2219 0
-748 -2848 0
-749 -2850 0
-750 -2849 0
-748 -2863 0
-749 -2865 0
-750 -2864 0
-748 -2908 0
-749 -2910 0
-750 -2909 0
-748 -3043 0
-749 -3045 0
-750 -3044 0
-748 -3193 0
-749 -3195 0
-750 -3194 0
-763 -1738 0
-764 -1740 0
-765 -1739 0
-763 -1753 0
-764 -1755 0
-765 -1754 0
-763 -1783 0
-764 -1785 0
-765 -1784 0
-763 -1858 0
-764 -1860 0
-765 -1859 0
-763 -1888 0
-764 -1890 0
-765 -1889 0
-763 -1918 0
-764 -1920 0
-765 -1919 0
-763 -2008 0
-764 -2010 0
-765 -2009 0
-763 -2038 0
-764 -2040 0
-765 -2039 0
-763 -2068 0
-764 -2070 0
-765 -2069 0
-763 -2203 0
-764 -2205 0
-765 -2204 0
-763 -2833 0
-764 -2835 0
-765 -2834 0
-763 -2863 0
-764 -2865 0
-765 -2864 0
-763 -2893 0
-764 -2895 0
-765 -2894 0
-763 -3028 0
-764 -3030 0
-765 -3029 0
-763 -3178 0
-764 -3180 0
-765 -3179 0
-778 -1738 0
-779 -1740 0
-780 -1739 0
-778 -1753 0
-779 -1755 0
-780 -1754 0
-778 -1768 0
-779 -1770 0
-780 -1769 0
-778 -1858 0
-779 -1860 0
-780 -1859 0
-778 -1873 0
-779 -1875 0
-780 -1874 0
-778 -1903 0
-779 -1905 0
-780 -1904 0
-778 -2008 0
-779 -2010 0
-780 -2009 0
-778 -2023 0
-779 -2025 0
-780 -2024 0
-778 -2053 0
-779 -2055 0
-780 -2054 0
-778 -2188 0
-779 -2190 0
-780 -2189 0
-778 -2833 0
-779 -2835 0
-780 -2834 0
-778 -2848 0
-779 -2850 0
-780 -2849 0
-778 -2878 0
-779 -2880 0
-780 -2879 0
-778 -3013 0
-779 -3015 0
-780 -3014 0
-778 -3163 0
-779 -3165 0
-780 -3164 0
-793 -1723 0
-794 -1725 0
-795 -1724 0
-793 -1768 0
-794 -1770 0
-795 -1769 0
-793 -1783 0
-794 -1785 0
-795 -1784 0
-793 -1828 0
-794 -1830 0
-795 -1829 0
-793 -1843 0
-794 -1845 0
-795 -1844 0
-793 -1933 0
-794 -1935 0
-795 -1934 0
-793 -1978 0
-794 -1980 0
-795 -1979 0
-793 -1993 0
-794 -1995 0
-795 -1994 0
-793 -2083 0
-794 -2085 0
-795 -2084 0
-793 -2173 0
-794 -2175 0
-795 -2174 0
-793 -2803 0
-794 -2805 0
-795 -2804 0
-793 -2818 0
-794 -2820 0
-795 -2819 0
-793 -2908 0
-794 -2910 0
-795 -2909 0
-793 -2998 0
-794 -3000 0
-795 -2999 0
-793 -3148 0
-794 -3150 0
-795 -3149 0
-808 -1723 0
-809 -1725 0
-810 -1724 0
-808 -1753 0
-809 -1755 0
-810 -1754 0
-808 -1783 0
-809 -1785 0
-810 -1784 0
-808 -1813 0
-809 -1815 0
-810 -1814 0
-808 -1843 0
-809 -1845 0
-810 -1844 0
-808 -1918 0
-809 -1920 0
-810 -1919 0
-808 -1963 0
-809 -1965 0
-810 -1964 0
-808 -1993 0
-809 -1995 0
-810 -1994 0
-808 -2068 0
-809 -2070 0
-810 -2069 0
-808 -2158 0
-809 -2160 0
-810 -2159 0
-808 -2788 0
-809 -2790 0
-810 -2789 0
-808 -2818 0
-809 -2820 0
-810 -2819 0
-808 -2893 0
-809 -2895 0
-810 -2894 0
-808 -2983 0
-809 -2985 0
-810 -2984 0
-808 -3133 0
-809 -3135 0
-810 -3134 0
-823 -1723 0
-824 -1725 0
-825 -1724 0
-823 -1753 0
-824 -1755 0
-825 -1754 0
-823 -1768 0
-824 -1770 0
-825 -1769 0
-823 -1813 0
-824 -1815 0
-825 -1814 0
-823 -1828 0
-824 -1830 0
-825 -1829 0
-823 -1903 0
-824 -1905 0
-825 -1904 0
-823 -1963 0
-824 -1965 0
-825 -1964 0
-823 -1978 0
-824 -1980 0
-825 -1979 0
-823 -2053 0
-824 -2055 0
-825 -2054 0
-823 -2143 0
-824 -2145 0
-825 -2144 0
-823 -2788 0
-824 -2790 0
-825 -2789 0
-823 -2803 0
-824 -2805 0
-825 -2804 0
-823 -2878 0
-824 -2880 0
-825 -2879 0
-823 -2968 0
-824 -2970 0
-825 -2969 0
-823 -3118 0
-824 -3120 0
-825 -3119 0
-838 -1723 0
-839 -1725 0
-840 -1724 0
-838 -1738 0
-839 -1740 0
-840 -1739 0
-838 -1783 0
-839 -1785 0
-840 -1784 0
-838 -1798 0
-839 -1800 0
-840 -1799 0
-838 -1843 0
-839 -1845 0
-840 -1844 0
-838 -1888 0
-839 -1890 0
-840 -1889 0
-838 -1948 0
-839 -1950 0
-840 -1949 0
-838 -1993 0
-839 -1995 0
-840 -1994 0
-838 -2038 0
-839 -2040 0
-840 -2039 0
-838 -2128 0
-839 -2130 0
-840 -2129 0
-838 -2773 0
-839 -2775 0
-840 -2774 0
-838 -2818 0
-839 -2820 0
-840 -2819 0
-838 -2863 0
-839 -2865 0
-840 -2864 0
-838 -2953 0
-839 -2955 0
-840 -2954 0
-838 -3103 0
-839 -3105 0
-840 -3104 0
-853 -1723 0
-854 -1725 0
-855 -1724 0
-853 -1738 0
-854 -1740 0
-855 -1739 0
-853 -1768 0
-854 -1770 0
-855 -1769 0
-853 -1798 0
-854 -1800 0
-855 -1799 0
-853 -1828 0
-854 -1830 0
-855 -1829 0
-853 -1873 0
-854 -1875 0
-855 -1874 0
-853 -1948 0
-854 -1950 0
-855 -1949 0
-853 -1978 0
-854 -1980 0
-855 -1979 0
-853 -2023 0
-854 -2025 0
-855 -2024 0
-853 -2113 0
-854 -2115 0
-855 -2114 0
-853 -2773 0
-854 -2775 0
-855 -2774 0
-853 -2803 0
-854 -2805 0
-855 -2804 0
-853 -2848 0
-854 -2850 0
-855 -2849 0
-853 -2938 0
-854 -2940 0
-855 -2939 0
-853 -3088 0
-854 -3090 0
-855 -3089 0
-868 -1723 0
-869 -1725 0
-870 -1724 0
-868 -1738 0
-869 -1740 0
-870 -1739 0
-868 -1753 0
-869 -1755 0
-870 -1754 0
-868 -1798 0
-869 -1800 0
-870 -1799 0
-868 -1813 0
-869 -1815 0
-870 -1814 0
-868 -1858 0
-869 -1860 0
-870 -1859 0
-868 -1948 0
-869 -1950 0
-870 -1949 0
-868 -1963 0
-869 -1965 0
-870 -1964 0
-868 -2008 0
-869 -2010 0
-870 -2009 0
-868 -2098 0
-869 -2100 0
-870 -2099 0
-868 -2773 0
-869 -2775 0
-870 -2774 0
-868 -2788 0
-869 -2790 0
-870 -2789 0
-868 -2833 0
-869 -2835 0
-870 -2834 0
-868 -2923 0
-869 -2925 0
-870 -2924 0
-868 -3073 0
-869 -3075 0
-870 -3074 0
-883 -1633 0
-884 -1635 0
-885 -1634 0
-883 -1648 0
-884 -1650 0
-885 -1649 0
-883 -1663 0
-884 -1665 0
-885 -1664 0
-883 -1678 0
-884 -1680 0
-885 -1679 0
-883 -1693 0
-884 -1695 0
-885 -1694 0
-883 -1708 0
-884 -1710 0
-885 -1709 0
-883 -2188 0
-884 -2190 0
-885 -2189 0
-883 -2203 0
-884 -2205 0
-885 -2204 0
-883 -2218 0
-884 -2220 0
-885 -2219 0
-883 -2233 0
-884 -2235 0
-885 -2234 0
-883 -2713 0
-884 -2715 0
-885 -2714 0
-883 -2728 0
-884 -2730 0
-885 -2729 0
-883 -2743 0
-884 -2745 0
-885 -2744 0
-883 -2758 0
-884 -2760 0
-885 -2759 0
-883 -3283 0
-884 -3285 0
-885 -3284 0
-898 -1588 0
-899 -1590 0
-900 -1589 0
-898 -1603 0
-899 -1605 0
-900 -1604 0
-898 -1618 0
-899 -1620 0
-900 -1619 0
-898 -1678 0
-899 -1680 0
-900 -1679 0
-898 -1693 0
-899 -1695 0
-900 -1694 0
-898 -1708 0
-899 -1710 0
-900 -1709 0
-898 -2143 0
-899 -2145 0
-900 -2144 0
-898 -2158 0
-899 -2160 0
-900 -2159 0
-898 -2173 0
-899 -2175 0
-900 -2174 0
-898 -2233 0
-899 -2235 0
-900 -2234 0
-898 -2668 0
-899 -2670 0
-900 -2669 0
-898 -2683 0
-899 -2685 0
-900 -2684 0
-898 -2698 0
-899 -2700 0
-900 -2699 0
-898 -2758 0
-899 -2760 0
-900 -2759 0
-898 -3268 0
-899 -3270 0
-900 -3269 0
-913 -1573 0
-914 -1575 0
-915 -1574 0
-913 -1603 0
-914 -1605 0
-915 -1604 0
-913 -1618 0
-914 -1620 0
-915 -1619 0
-913 -1648 0
-914 -1650 0
-915 -1649 0
-913 -1663 0
-914 -1665 0
-915 -1664 0
-913 -1708 0
-914 -1710 0
-915 -1709 0
-913 -2113 0
-914 -2115 0
-915 -2114 0
-913 -2128 0
-914 -2130 0
-915 -2129 0
-913 -2173 0
-914 -2175 0
-915 -2174 0
-913 -2218 0
-914 -2220 0
-915 -2219 0
-913 -2638 0
-914 -2640 0
-915 -2639 0
-913 -2653 0
-914 -2655 0
-915 -2654 0
-913 -2698 0
-914 -2700 0
-915 -2699 0
-913 -2743 0
-914 -2745 0
-915 -2744 0
-913 -3253 0
-914 -3255 0
-915 -3254 0
-928 -1573 0
-929 -1575 0
-930 -1574 0
-928 -1588 0
-929 -1590 0
-930 -1589 0
-928 -1618 0
-929 -1620 0
-930 -1619 0
-928 -1633 0
-929 -1635 0
-930 -1634 0
-928 -1663 0
-929 -1665 0
-930 -1664 0
-928 -1693 0
-929 -1695 0
-930 -1694 0
-928 -2098 0
-929 -2100 0
-930 -2099 0
-928 -2128 0
-929 -2130 0
-930 -2129 0
-928 -2158 0
-929 -2160 0
-930 -2159 0
-928 -2203 0
-929 -2205 0
-930 -2204 0
-928 -2623 0
-929 -2625 0
-930 -2624 0
-928 -2653 0
-929 -2655 0
-930 -2654 0
-928 -2683 0
-929 -2685 0
-930 -2684 0
-928 -2728 0
-929 -2730 0
-930 -2729 0
-928 -3238 0
-929 -3240 0
-930 -3239 0
-943 -1573 0
-944 -1575 0
-945 -1574 0
-943 -1588 0
-944 -1590 0
-945 -1589 0
-943 -1603 0
-944 -1605 0
-945 -1604 0
-943 -1633 0
-944 -1635 0
-945 -1634 0
-943 -1648 0
-944 -1650 0
-945 -1649 0
-943 -1678 0
-944 -1680 0
-945 -1679 0
-943 -2098 0
-944 -2100 0
-945 -2099 0
-943 -2113 0
-944 -2115 0
-945 -2114 0
-943 -2143 0
-944 -2145 0
-945 -2144 0
-943 -2188 0
-944 -2190 0
-945 -2189 0
-943 -2623 0
-944 -2625 0
-945 -2624 0
-943 -2638 0
-944 -2640 0
-945 -2639 0
-943 -2668 0
-944 -2670 0
-945 -2669 0
-943 -2713 0
-944 -2715 0
-945 -2714 0
-943 -3223 0
-944 -3225 0
-945 -3224 0
-958 -1528 0
-959 -1530 0
-960 -1529 0
-958 -1543 0
-959 -1545 0
-960 -1544 0
-958 -1558 0
-959 -1560 0
-960 -1559 0
-958 -1678 0
-959 -1680 0
-960 -1679 0
-958 -1693 0
-959 -1695 0
-960 -1694 0
-958 -1708 0
-959 -1710 0
-960 -1709 0
-958 -2053 0
-959 -2055 0
-960 -2054 0
-958 -2068 0
-959 -2070 0
-960 -2069 0
-958 -2083 0
-959 -2085 0
-960 -2084 0
-958 -2233 0
-959 -2235 0
-960 -2234 0
-958 -2578 0
-959 -2580 0
-960 -2579 0
-958 -2593 0
-959 -2595 0
-960 -2594 0
-958 -2608 0
-959 -2610 0
-960 -2609 0
-958 -2758 0
-959 -2760 0
-960 -2759 0
-958 -3208 0
-959 -3210 0
-960 -3209 0
-973 -1513 0
-974 -1515 0
-975 -1514 0
-973 -1543 0
-974 -1545 0
-975 -1544 0
-973 -1558 0
-974 -1560 0
-975 -1559 0
-973 -1648 0
-974 -1650 0
-975 -1649 0
-973 -1663 0
-974 -1665 0
-975 -1664 0
-973 -1708 0
-974 -1710 0
-975 -1709 0
-973 -2023 0
-974 -2025 0
-975 -2024 0
-973 -2038 0
-974 -2040 0
-975 -2039 0
-973 -2083 0
-974 -2085 0
-975 -2084 0
-973 -2218 0
-974 -2220 0
-975 -2219 0
-973 -2548 0
-974 -2550 0
-975 -2549 0
-973 -2563 0
-974 -2565 0
-975 -2564 0
-973 -2608 0
-974 -2610 0
-975 -2609 0
-973 -2743 0
-974 -2745 0
-975 -2744 0
-973 -3193 0
-974 -3195 0
-975 -3194 0
-988 -1513 0
-989 -1515 0
-990 -1514 0
-988 -1528 0
-989 -1530 0
-990 -1529 0
-988 -1558 0
-989 -1560 0
-990 -1559 0
-988 -1633 0
-989 -1635 0
-990 -1634 0
-988 -1663 0
-989 -1665 0
-990 -1664 0
-988 -1693 0
-989 -1695 0
-990 -1694 0
-988 -2008 0
-989 -2010 0
-990 -2009 0
-988 -2038 0
-989 -2040 0
-990 -2039 0
-988 -2068 0
-989 -2070 0
-990 -2069 0
-988 -2203 0
-989 -2205 0
-990 -2204 0
-988 -2533 0
-989 -2535 0
-990 -2534 0
-988 -2563 0
-989 -2565 0
-990 -2564 0
-988 -2593 0
-989 -2595 0
-990 -2594 0
-988 -2728 0
-989 -2730 0
-990 -2729 0
-988 -3178 0
-989 -3180 0
-990 -3179 0
-1003 -1513 0
-1004 -1515 0
-1005 -1514 0
-1003 -1528 0
-1004 -1530 0
-1005 -1529 0
-1003 -1543 0
-1004 -1545 0
-1005 -1544 0
-1003 -1633 0
-1004 -1635 0
-1005 -1634 0
-1003 -1648 0
-1004 -1650 0
-1005 -1649 0
-1003 -1678 0
-1004 -1680 0
-1005 -1679 0
-1003 -2008 0
-1004 -2010 0
-1005 -2009 0
-1003 -2023 0
-1004 -2025 0
-1005 -2024 0
-1003 -2053 0
-1004 -2055 0
-1005 -2054 0
-1003 -2188 0
-1004 -2190 0
-1005 -2189 0
-1003 -2533 0
-1004 -2535 0
-1005 -2534 0
-1003 -2548 0
-1004 -2550 0
-1005 -2549 0
-1003 -2578 0
-1004 -2580 0
-1005 -2579 0
-1003 -2713 0
-1004 -2715 0
-1005 -2714 0
-1003 -3163 0
-1004 -3165 0
-1005 -3164 0
-1018 -1498 0
-1019 -1500 0
-1020 -1499 0
-1018 -1543 0
-1019 -1545 0
-1020 -1544 0
-1018 -1558 0
-1019 -1560 0
-1020 -1559 0
-1018 -1603 0
-1019 -1605 0
-1020 -1604 0
-1018 -1618 0
-1019 -1620 0
-1020 -1619 0
-1018 -1708 0
-1019 -1710 0
-1020 -1709 0
-1018 -1978 0
-1019 -1980 0
-1020 -1979 0
-1018 -1993 0
-1019 -1995 0
-1020 -1994 0
-1018 -2083 0
-1019 -2085 0
-1020 -2084 0
-1018 -2173 0
-1019 -2175 0
-1020 -2174 0
-1018 -2503 0
-1019 -2505 0
-1020 -2504 0
-1018 -2518 0
-1019 -2520 0
-1020 -2519 0
-1018 -2608 0
-1019 -2610 0
-1020 -2609 0
-1018 -2698 0
-1019 -2700 0
-1020 -2699 0
-1018 -3148 0
-1019 -3150 0
-1020 -3149 0
-1033 -1498 0
-1034 -1500 0
-1035 -1499 0
-1033 -1528 0
-1034 -1530 0
-1035 -1529 0
-1033 -1558 0
-1034 -1560 0
-1035 -1559 0
-1033 -1588 0
-1034 -1590 0
-1035 -1589 0
-1033 -1618 0
-1034 -1620 0
-1035 -1619 0
-1033 -1693 0
-1034 -1695 0
-1035 -1694 0
-1033 -1963 0
-1034 -1965 0
-1035 -1964 0
-1033 -1993 0
-1034 -1995 0
-1035 -1994 0
-1033 -2068 0
-1034 -2070 0
-1035 -2069 0
-1033 -2158 0
-1034 -2160 0
-1035 -2159 0
-1033 -2488 0
-1034 -2490 0
-1035 -2489 0
-1033 -2518 0
-1034 -2520 0
-1035 -2519 0
-1033 -2593 0
-1034 -2595 0
-1035 -2594 0
-1033 -2683 0
-1034 -2685 0
-1035 -2684 0
-1033 -3133 0
-1034 -3135 0
-1035 -3134 0
-1048 -1498 0
-1049 -1500 0
-1050 -1499 0
-1048 -1528 0
-1049 -1530 0
-1050 -1529 0
-1048 -1543 0
-1049 -1545 0
-1050 -1544 0
-1048 -1588 0
-1049 -1590 0
-1050 -1589 0
-1048 -1603 0
-1049 -1605 0
-1050 -1604 0
-1048 -1678 0
-1049 -1680 0
-1050 -1679 0
-1048 -1963 0
-1049 -1965 0
-1050 -1964 0
-1048 -1978 0
-1049 -1980 0
-1050 -1979 0
-1048 -2053 0
-1049 -2055 0
-1050 -2054 0
-1048 -2143 0
-1049 -2145 0
-1050 -2144 0
-1048 -2488 0
-1049 -2490 0
-1050 -2489 0
-1048 -2503 0
-1049 -2505 0
-1050 -2504 0
-1048 -2578 0
-1049 -2580 0
-1050 -2579 0
-1048 -2668 0
-1049 -2670 0
-1050 -2669 0
-1048 -3118 0
-1049 -3120 0
-1050 -3119 0
-1063 -1498 0
-1064 -1500 0
-1065 -1499 0
-1063 -1513 0
-1064 -1515 0
-1065 -1514 0
-1063 -1558 0
-1064 -1560 0
-1065 -1559 0
-1063 -1573 0
-1064 -1575 0
-1065 -1574 0
-1063 -1618 0
-1064 -1620 0
-1065 -1619 0
-1063 -1663 0
-1064 -1665 0
-1065 -1664 0
-1063 -1948 0
-1064 -1950 0
-1065 -1949 0
-1063 -1993 0
-1064 -1995 0
-1065 -1994 0
-1063 -2038 0
-1064 -2040 0
-1065 -2039 0
-1063 -2128 0
-1064 -2130 0
-1065 -2129 0
-1063 -2473 0
-1064 -2475 0
-1065 -2474 0
-1063 -2518 0
-1064 -2520 0
-1065 -2519 0
-1063 -2563 0
-1064 -2565 0
-1065 -2564 0
-1063 -2653 0
-1064 -2655 0
-1065 -2654 0
-1063 -3103 0
-1064 -3105 0
-1065 -3104 0
-1078 -1498 0
-1079 -1500 0
-1080 -1499 0
-1078 -1513 0
-1079 -1515 0
-1080 -1514 0
-1078 -1543 0
-1079 -1545 0
-1080 -1544 0
-1078 -1573 0
-1079 -1575 0
-1080 -1574 0
-1078 -1603 0
-1079 -1605 0
-1080 -1604 0
-1078 -1648 0
-1079 -1650 0
-1080 -1649 0
-1078 -1948 0
-1079 -1950 0
-1080 -1949 0
-1078 -1978 0
-1079 -1980 0
-1080 -1979 0
-1078 -2023 0
-1079 -2025 0
-1080 -2024 0
-1078 -2113 0
-1079 -2115 0
-1080 -2114 0
-1078 -2473 0
-1079 -2475 0
-1080 -2474 0
-1078 -2503 0
-1079 -2505 0
-1080 -2504 0
-1078 -2548 0
-1079 -2550 0
-1080 -2549 0
-1078 -2638 0
-1079 -2640 0
-1080 -2639 0
-1078 -3088 0
-1079 -3090 0
-1080 -3089 0
-1093 -1498 0
-1094 -1500 0
-1095 -1499 0
-1093 -1513 0
-1094 -1515 0
-1095 -1514 0
-1093 -1528 0
-1094 -1530 0
-1095 -1529 0
-1093 -1573 0
-1094 -1575 0
-1095 -1574 0
-1093 -1588 0
-1094 -1590 0
-1095 -1589 0
-1093 -1633 0
-1094 -1635 0
-1095 -1634 0
-1093 -1948 0
-1094 -1950 0
-1095 -1949 0
-1093 -1963 0
-1094 -1965 0
-1095 -1964 0
-1093 -2008 0
-1094 -2010 0
-1095 -2009 0
-1093 -2098 0
-1094 -2100 0
-1095 -2099 0
-1093 -2473 0
-1094 -2475 0
-1095 -2474 0
-1093 -2488 0
-1094 -2490 0
-1095 -2489 0
-1093 -2533 0
-1094 -2535 0
-1095 -2534 0
-1093 -2623 0
-1094 -2625 0
-1095 -2624 0
-1093 -3073 0
-1094 -3075 0
-1095 -3074 0
-1108 -1453 0
-1109 -1455 0
-1110 -1454 0
-1108 -1468 0
-1109 -1470 0
-1110 -1469 0
-1108 -1483 0
-1109 -1485 0
-1110 -1484 0
-1108 -1678 0
-1109 -1680 0
-1110 -1679 0
-1108 -1693 0
-1109 -1695 0
-1110 -1694 0
-1108 -1708 0
-1109 -1710 0
-1110 -1709 0
-1108 -1903 0
-1109 -1905 0
-1110 -1904 0
-1108 -1918 0
-1109 -1920 0
-1110 -1919 0
-1108 -1933 0
-1109 -1935 0
-1110 -1934 0
-1108 -2233 0
-1109 -2235 0
-1110 -2234 0
-1108 -2428 0
-1109 -2430 0
-1110 -2429 0
-1108 -2443 0
-1109 -2445 0
-1110 -2444 0
-1108 -2458 0
-1109 -2460 0
-1110 -2459 0
-1108 -2758 0
-1109 -2760 0
-1110 -2759 0
-1108 -3058 0
-1109 -3060 0
-1110 -3059 0
-1123 -1438 0
-1124 -1440 0
-1125 -1439 0
-1123 -1468 0
-1124 -1470 0
-1125 -1469 0
-1123 -1483 0
-1124 -1485 0
-1125 -1484 0
-1123 -1648 0
-1124 -1650 0
-1125 -1649 0
-1123 -1663 0
-1124 -1665 0
-1125 -1664 0
-1123 -1708 0
-1124 -1710 0
-1125 -1709 0
-1123 -1873 0
-1124 -1875 0
-1125 -1874 0
-1123 -1888 0
-1124 -1890 0
-1125 -1889 0
-1123 -1933 0
-1124 -1935 0
-1125 -1934 0
-1123 -2218 0
-1124 -2220 0
-1125 -2219 0
-1123 -2398 0
-1124 -2400 0
-1125 -2399 0
-1123 -2413 0
-1124 -2415 0
-1125 -2414 0
-1123 -2458 0
-1124 -2460 0
-1125 -2459 0
-1123 -2743 0
-1124 -2745 0
-1125 -2744 0
-1123 -3043 0
-1124 -3045 0
-1125 -3044 0
-1138 -1438 0
-1139 -1440 0
-1140 -1439 0
-1138 -1453 0
-1139 -1455 0
-1140 -1454 0
-1138 -1483 0
-1139 -1485 0
-1140 -1484 0
-1138 -1633 0
-1139 -1635 0
-1140 -1634 0
-1138 -1663 0
-1139 -1665 0
-1140 -1664 0
-1138 -1693 0
-1139 -1695 0
-1140 -1694 0
-1138 -1858 0
-1139 -1860 0
-1140 -1859 0
-1138 -1888 0
-1139 -1890 0
-1140 -1889 0
-1138 -1918 0
-1139 -1920 0
-1140 -1919 0
-1138 -2203 0
-1139 -2205 0
-1140 -2204 0
-1138 -2383 0
-1139 -2385 0
-1140 -2384 0
-1138 -2413 0
-1139 -2415 0
-1140 -2414 0
-1138 -2443 0
-1139 -2445 0
-1140 -2444 0
-1138 -2728 0
-1139 -2730 0
-1140 -2729 0
-1138 -3028 0
-1139 -3030 0
-1140 -3029 0
-1153 -1438 0
-1154 -1440 0
-1155 -1439 0
-1153 -1453 0
-1154 -1455 0
-1155 -1454 0
-1153 -1468 0
-1154 -1470 0
-1155 -1469 0
-1153 -1633 0
-1154 -1635 0
-1155 -1634 0
-1153 -1648 0
-1154 -1650 0
-1155 -1649 0
-1153 -1678 0
-1154 -1680 0
-1155 -1679 0
-1153 -1858 0
-1154 -1860 0
-1155 -1859 0
-1153 -1873 0
-1154 -1875 0
-1155 -1874 0
-1153 -1903 0
-1154 -1905 0
-1155 -1904 0
-1153 -2188 0
-1154 -2190 0
-1155 -2189 0
-1153 -2383 0
-1154 -2385 0
-1155 -2384 0
-1153 -2398 0
-1154 -2400 0
-1155 -2399 0
-1153 -2428 0
-1154 -2430 0
-1155 -2429 0
-1153 -2713 0
-1154 -2715 0
-1155 -2714 0
-1153 -3013 0
-1154 -3015 0
-1155 -3014 0
-1168 -1423 0
-1169 -1425 0
-1170 -1424 0
-1168 -1468 0
-1169 -1470 0
-1170 -1469 0
-1168 -1483 0
-1169 -1485 0
-1170 -1484 0
-1168 -1603 0
-1169 -1605 0
-1170 -1604 0
-1168 -1618 0
-1169 -1620 0
-1170 -1619 0
-1168 -1708 0
-1169 -1710 0
-1170 -1709 0
-1168 -1828 0
-1169 -1830 0
-1170 -1829 0
-1168 -1843 0
-1169 -1845 0
-1170 -1844 0
-1168 -1933 0
-1169 -1935 0
-1170 -1934 0
-1168 -2173 0
-1169 -2175 0
-1170 -2174 0
-1168 -2353 0
-1169 -2355 0
-1170 -2354 0
-1168 -2368 0
-1169 -2370 0
-1170 -2369 0
-1168 -2458 0
-1169 -2460 0
-1170 -2459 0
-1168 -2698 0
-1169 -2700 0
-1170 -2699 0
-1168 -2998 0
-1169 -3000 0
-1170 -2999 0
-1183 -1423 0
-1184 -1425 0
-1185 -1424 0
-1183 -1453 0
-1184 -1455 0
-1185 -1454 0
-1183 -1483 0
-1184 -1485 0
-1185 -1484 0
-1183 -1588 0
-1184 -1590 0
-1185 -1589 0
-1183 -1618 0
-1184 -1620 0
-1185 -1619 0
-1183 -1693 0
-1184 -1695 0
-1185 -1694 0
-1183 -1813 0
-1184 -1815 0
-1185 -1814 0
-1183 -1843 0
-1184 -1845 0
-1185 -1844 0
-1183 -1918 0
-1184 -1920 0
-1185 -1919 0
-1183 -2158 0
-1184 -2160 0
-1185 -2159 0
-1183 -2338 0
-1184 -2340 0
-1185 -2339 0
-1183 -2368 0
-1184 -2370 0
-1185 -2369 0
-1183 -2443 0
-1184 -2445 0
-1185 -2444 0
-1183 -2683 0
-1184 -2685 0
-1185 -2684 0
-1183 -2983 0
-1184 -2985 0
-1185 -2984 0
-1198 -1423 0
-1199 -1425 0
-1200 -1424 0
-1198 -1453 0
-1199 -1455 0
-1200 -1454 0
-1198 -1468 0
-1199 -1470 0
-1200 -1469 0
-1198 -1588 0
-1199 -1590 0
-1200 -1589 0
-1198 -1603 0
-1199 -1605 0
-1200 -1604 0
-1198 -1678 0
-1199 -1680 0
-1200 -1679 0
-1198 -1813 0
-1199 -1815 0
-1200 -1814 0
-1198 -1828 0
-1199 -1830 0
-1200 -1829 0
-1198 -1903 0
-1199 -1905 0
-1200 -1904 0
-1198 -2143 0
-1199 -2145 0
-1200 -2144 0
-1198 -2338 0
-1199 -2340 0
-1200 -2339 0
-1198 -2353 0
-1199 -2355 0
-1200 -2354 0
-1198 -2428 0
-1199 -2430 0
-1200 -2429 0
-1198 -2668 0
-1199 -2670 0
-1200 -2669 0
-1198 -2968 0
-1199 -2970 0
-1200 -2969 0
-1213 -1423 0
-1214 -1425 0
-1215 -1424 0
-1213 -1438 0
-1214 -1440 0
-1215 -1439 0
-1213 -1483 0
-1214 -1485 0
-1215 -1484 0
-1213 -1573 0
-1214 -1575 0
-1215 -1574 0
-1213 -1618 0
-1214 -1620 0
-1215 -1619 0
-1213 -1663 0
-1214 -1665 0
-1215 -1664 0
-1213 -1798 0
-1214 -1800 0
-1215 -1799 0
-1213 -1843 0
-1214 -1845 0
-1215 -1844 0
-1213 -1888 0
-1214 -1890 0
-1215 -1889 0
-1213 -2128 0
-1214 -2130 0
-1215 -2129 0
-1213 -2323 0
-1214 -2325 0
-1215 -2324 0
-1213 -2368 0
-1214 -2370 0
-1215 -2369 0
-1213 -2413 0
-1214 -2415 0
-1215 -2414 0
-1213 -2653 0
-1214 -2655 0
-1215 -2654 0
-1213 -2953 0
-1214 -2955 0
-1215 -2954 0
-1228 -1423 0
-1229 -1425 0
-1230 -1424 0
-1228 -1438 0
-1229 -1440 0
-1230 -1439 0
-1228 -1468 0
-1229 -1470 0
-1230 -1469 0
-1228 -1573 0
-1229 -1575 0
-1230 -1574 0
-1228 -1603 0
-1229 -1605 0
-1230 -1604 0
-1228 -1648 0
-1229 -1650 0
-1230 -1649 0
-1228 -1798 0
-1229 -1800 0
-1230 -1799 0
-1228 -1828 0
-1229 -1830 0
-1230 -1829 0
-1228 -1873 0
-1229 -1875 0
-1230 -1874 0
-1228 -2113 0
-1229 -2115 0
-1230 -2114 0
-1228 -2323 0
-1229 -2325 0
-1230 -2324 0
-1228 -2353 0
-1229 -2355 0
-1230 -2354 0
-1228 -2398 0
-1229 -2400 0
-1230 -2399 0
-1228 -2638 0
-1229 -2640 0
-1230 -2639 0
-1228 -2938 0
-1229 -2940 0
-1230 -2939 0
-1243 -1423 0
-1244 -1425 0
-1245 -1424 0
-1243 -1438 0
-1244 -1440 0
-1245 -1439 0
-1243 -1453 0
-1244 -1455 0
-1245 -1454 0
-1243 -1573 0
-1244 -1575 0
-1245 -1574 0
-1243 -1588 0
-1244 -1590 0
-1245 -1589 0
-1243 -1633 0
-1244 -1635 0
-1245 -1634 0
-1243 -1798 0
-1244 -1800 0
-1245 -1799 0
-1243 -1813 0
-1244 -1815 0
-1245 -1814 0
-1243 -1858 0
-1244 -1860 0
-1245 -1859 0
-1243 -2098 0
-1244 -2100 0
-1245 -2099 0
-1243 -2323 0
-1244 -2325 0
-1245 -2324 0
-1243 -2338 0
-1244 -2340 0
-1245 -2339 0
-1243 -2383 0
-1244 -2385 0
-1245 -2384 0
-1243 -2623 0
-1244 -2625 0
-1245 -2624 0
-1243 -2923 0
-1244 -2925 0
-1245 -2924 0
-1258 -1408 0
-1259 -1410 0
-1260 -1409 0
-1258 -1468 0
-1259 -1470 0
-1260 -1469 0
-1258 -1483 0
-1259 -1485 0
-1260 -1484 0
-1258 -1543 0
-1259 -1545 0
-1260 -1544 0
-1258 -1558 0
-1259 -1560 0
-1260 -1559 0
-1258 -1708 0
-1259 -1710 0
-1260 -1709 0
-1258 -1768 0
-1259 -1770 0
-1260 -1769 0
-1258 -1783 0
-1259 -1785 0
-1260 -1784 0
-1258 -1933 0
-1259 -1935 0
-1260 -1934 0
-1258 -2083 0
-1259 -2085 0
-1260 -2084 0
-1258 -2293 0
-1259 -2295 0
-1260 -2294 0
-1258 -2308 0
-1259 -2310 0
-1260 -2309 0
-1258 -2458 0
-1259 -2460 0
-1260 -2459 0
-1258 -2608 0
-1259 -2610 0
-1260 -2609 0
-1258 -2908 0
-1259 -2910 0
-1260 -2909 0
-1273 -1408 0
-1274 -1410 0
-1275 -1409 0
-1273 -1453 0
-1274 -1455 0
-1275 -1454 0
-1273 -1483 0
-1274 -1485 0
-1275 -1484 0
-1273 -1528 0
-1274 -1530 0
-1275 -1529 0
-1273 -1558 0
-1274 -1560 0
-1275 -1559 0
-1273 -1693 0
-1274 -1695 0
-1275 -1694 0
-1273 -1753 0
-1274 -1755 0
-1275 -1754 0
-1273 -1783 0
-1274 -1785 0
-1275 -1784 0
-1273 -1918 0
-1274 -1920 0
-1275 -1919 0
-1273 -2068 0
-1274 -2070 0
-1275 -2069 0
-1273 -2278 0
-1274 -2280 0
-1275 -2279 0
-1273 -2308 0
-1274 -2310 0
-1275 -2309 0
-1273 -2443 0
-1274 -2445 0
-1275 -2444 0
-1273 -2593 0
-1274 -2595 0
-1275 -2594 0
-1273 -2893 0
-1274 -2895 0
-1275 -2894 0
-1288 -1408 0
-1289 -1410 0
-1290 -1409 0
-1288 -1453 0
-1289 -1455 0
-1290 -1454 0
-1288 -1468 0
-1289 -1470 0
-1290 -1469 0
-1288 -1528 0
-1289 -1530 0
-1290 -1529 0
-1288 -1543 0
-1289 -1545 0
-1290 -1544 0
-1288 -1678 0
-1289 -1680 0
-1290 -1679 0
-1288 -1753 0
-1289 -1755 0
-1290 -1754 0
-1288 -1768 0
-1289 -1770 0
-1290 -1769 0
-1288 -1903 0
-1289 -1905 0
-1290 -1904 0
-1288 -2053 0
-1289 -2055 0
-1290 -2054 0
-1288 -2278 0
-1289 -2280 0
-1290 -2279 0
-1288 -2293 0
-1289 -2295 0
-1290 -2294 0
-1288 -2428 0
-1289 -2430 0
-1290 -2429 0
-1288 -2578 0
-1289 -2580 0
-1290 -2579 0
-1288 -2878 0
-1289 -2880 0
-1290 -2879 0
-1303 -1408 0
-1304 -1410 0
-1305 -1409 0
-1303 -1438 0
-1304 -1440 0
-1305 -1439 0
-1303 -1483 0
-1304 -1485 0
-1305 -1484 0
-1303 -1513 0
-1304 -1515 0
-1305 -1514 0
-1303 -1558 0
-1304 -1560 0
-1305 -1559 0
-1303 -1663 0
-1304 -1665 0
-1305 -1664 0
-1303 -1738 0
-1304 -1740 0
-1305 -1739 0
-1303 -1783 0
-1304 -1785 0
-1305 -1784 0
-1303 -1888 0
-1304 -1890 0
-1305 -1889 0
-1303 -2038 0
-1304 -2040 0
-1305 -2039 0
-1303 -2263 0
-1304 -2265 0
-1305 -2264 0
-1303 -2308 0
-1304 -2310 0
-1305 -2309 0
-1303 -2413 0
-1304 -2415 0
-1305 -2414 0
-1303 -2563 0
-1304 -2565 0
-1305 -2564 0
-1303 -2863 0
-1304 -2865 0
-1305 -2864 0
-1318 -1408 0
-1319 -1410 0
-1320 -1409 0
-1318 -1438 0
-1319 -1440 0
-1320 -1439 0
-1318 -1468 0
-1319 -1470 0
-1320 -1469 0
-1318 -1513 0
-1319 -1515 0
-1320 -1514 0
-1318 -1543 0
-1319 -1545 0
-1320 -1544 0
-1318 -1648 0
-1319 -1650 0
-1320 -1649 0
-1318 -1738 0
-1319 -1740 0
-1320 -1739 0
-1318 -1768 0
-1319 -1770 0
-1320 -1769 0
-1318 -1873 0
-1319 -1875 0
-1320 -1874 0
-1318 -2023 0
-1319 -2025 0
-1320 -2024 0
-1318 -2263 0
-1319 -2265 0
-1320 -2264 0
-1318 -2293 0
-1319 -2295 0
-1320 -2294 0
-1318 -2398 0
-1319 -2400 0
-1320 -2399 0
-1318 -2548 0
-1319 -2550 0
-1320 -2549 0
-1318 -2848 0
-1319 -2850 0
-1320 -2849 0
-1333 -1408 0
-1334 -1410 0
-1335 -1409 0
-1333 -1438 0
-1334 -1440 0
-1335 -1439 0
-1333 -1453 0
-1334 -1455 0
-1335 -1454 0
-1333 -1513 0
-1334 -1515 0
-1335 -1514 0
-1333 -1528 0
-1334 -1530 0
-1335 -1529 0
-1333 -1633 0
-1334 -1635 0
-1335 -1634 0
-1333 -1738 0
-1334 -1740 0
-1335 -1739 0
-1333 -1753 0
-1334 -1755 0
-1335 -1754 0
-1333 -1858 0
-1334 -1860 0
-1335 -1859 0
-1333 -2008 0
-1334 -2010 0
-1335 -2009 0
-1333 -2263 0
-1334 -2265 0
-1335 -2264 0
-1333 -2278 0
-1334 -2280 0
-1335 -2279 0
-1333 -2383 0
-1334 -2385 0
-1335 -2384 0
-1333 -2533 0
-1334 -2535 0
-1335 -2534 0
-1333 -2833 0
-1334 -2835 0
-1335 -2834 0
-1348 -1408 0
-1349 -1410 0
-1350 -1409 0
-1348 -1423 0
-1349 -1425 0
-1350 -1424 0
-1348 -1483 0
-1349 -1485 0
-1350 -1484 0
-1348 -1498 0
-1349 -1500 0
-1350 -1499 0
-1348 -1558 0
-1349 -1560 0
-1350 -1559 0
-1348 -1618 0
-1349 -1620 0
-1350 -1619 0
-1348 -1723 0
-1349 -1725 0
-1350 -1724 0
-1348 -1783 0
-1349 -1785 0
-1350 -1784 0
-1348 -1843 0
-1349 -1845 0
-1350 -1844 0
-1348 -1993 0
-1349 -1995 0
-1350 -1994 0
-1348 -2248 0
-1349 -2250 0
-1350 -2249 0
-1348 -2308 0
-1349 -2310 0
-1350 -2309 0
-1348 -2368 0
-1349 -2370 0
-1350 -2369 0
-1348 -2518 0
-1349 -2520 0
-1350 -2519 0
-1348 -2818 0
-1349 -2820 0
-1350 -2819 0
-1363 -1408 0
-1364 -1410 0
-1365 -1409 0
-1363 -1423 0
-1364 -1425 0
-1365 -1424 0
-1363 -1468 0
-1364 -1470 0
-1365 -1469 0
-1363 -1498 0
-1364 -1500 0
-1365 -1499 0
-1363 -1543 0
-1364 -1545 0
-1365 -1544 0
-1363 -1603 0
-1364 -1605 0
-1365 -1604 0
-1363 -1723 0
-1364 -1725 0
-1365 -1724 0
-1363 -1768 0
-1364 -1770 0
-1365 -1769 0
-1363 -1828 0
-1364 -1830 0
-1365 -1829 0
-1363 -1978 0
-1364 -1980 0
-1365 -1979 0
-1363 -2248 0
-1364 -2250 0
-1365 -2249 0
-1363 -2293 0
-1364 -2295 0
-1365 -2294 0
-1363 -2353 0
-1364 -2355 0
-1365 -2354 0
-1363 -2503 0
-1364 -2505 0
-1365 -2504 0
-1363 -2803 0
-1364 -2805 0
-1365 -2804 0
-1378 -1408 0
-1379 -1410 0
-1380 -1409 0
-1378 -1423 0
-1379 -1425 0
-1380 -1424 0
-1378 -1453 0
-1379 -1455 0
-1380 -1454 0
-1378 -1498 0
-1379 -1500 0
-1380 -1499 0
-1378 -1528 0
-1379 -1530 0
-1380 -1529 0
-1378 -1588 0
-1379 -1590 0
-1380 -1589 0
-1378 -1723 0
-1379 -1725 0
-1380 -1724 0
-1378 -1753 0
-1379 -1755 0
-1380 -1754 0
-1378 -1813 0
-1379 -1815 0
-1380 -1814 0
-1378 -1963 0
-1379 -1965 0
-1380 -1964 0
-1378 -2248 0
-1379 -2250 0
-1380 -2249 0
-1378 -2278 0
-1379 -2280 0
-1380 -2279 0
-1378 -2338 0
-1379 -2340 0
-1380 -2339 0
-1378 -2488 0
-1379 -2490 0
-1380 -2489 0
-1378 -2788 0
-1379 -2790 0
-1380 -2789 0
-1393 -1408 0
-1394 -1410 0
-1395 -1409 0
-1393 -1423 0
-1394 -1425 0
-1395 -1424 0
-1393 -1438 0
-1394 -1440 0
-1395 -1439 0
-1393 -1498 0
-1394 -1500 0
-1395 -1499 0
-1393 -1513 0
-1394 -1515 0
-1395 -1514 0
-1393 -1573 0
-1394 -1575 0
-1395 -1574 0
-1393 -1723 0
-1394 -1725 0
-1395 -1724 0
-1393 -1738 0
-1394 -1740 0
-1395 -1739 0
-1393 -1798 0
-1394 -1800 0
-1395 -1799 0
-1393 -1948 0
-1394 -1950 0
-1395 -1949 0
-1393 -2248 0
-1394 -2250 0
-1395 -2249 0
-1393 -2263 0
-1394 -2265 0
-1395 -2264 0
-1393 -2323 0
-1394 -2325 0
-1395 -2324 0
-1393 -2473 0
-1394 -2475 0
-1395 -2474 0
-1393 -2773 0
-1394 -2775 0
-1395 -2774 0
-1408 -3223 0
-1409 -3225 0
-1410 -3224 0
-1408 -3238 0
-1409 -3240 0
-1410 -3239 0
-1408 -3253 0
-1409 -3255 0
-1410 -3254 0
-1408 -3268 0
-1409 -3270 0
-1410 -3269 0
-1408 -3283 0
-1409 -3285 0
-1410 -3284 0
-1423 -3163 0
-1424 -3165 0
-1425 -3164 0
-1423 -3178 0
-1424 -3180 0
-1425 -3179 0
-1423 -3193 0
-1424 -3195 0
-1425 -3194 0
-1423 -3208 0
-1424 -3210 0
-1425 -3209 0
-1423 -3283 0
-1424 -3285 0
-1425 -3284 0
-1438 -3118 0
-1439 -3120 0
-1440 -3119 0
-1438 -3133 0
-1439 -3135 0
-1440 -3134 0
-1438 -3148 0
-1439 -3150 0
-1440 -3149 0
-1438 -3208 0
-1439 -3210 0
-1440 -3209 0
-1438 -3268 0
-1439 -3270 0
-1440 -3269 0
-1453 -3088 0
-1454 -3090 0
-1455 -3089 0
-1453 -3103 0
-1454 -3105 0
-1455 -3104 0
-1453 -3148 0
-1454 -3150 0
-1455 -3149 0
-1453 -3193 0
-1454 -3195 0
-1455 -3194 0
-1453 -3253 0
-1454 -3255 0
-1455 -3254 0
-1468 -3073 0
-1469 -3075 0
-1470 -3074 0
-1468 -3103 0
-1469 -3105 0
-1470 -3104 0
-1468 -3133 0
-1469 -3135 0
-1470 -3134 0
-1468 -3178 0
-1469 -3180 0
-1470 -3179 0
-1468 -3238 0
-1469 -3240 0
-1470 -3239 0
-1483 -3073 0
-1484 -3075 0
-1485 -3074 0
-1483 -3088 0
-1484 -3090 0
-1485 -3089 0
-1483 -3118 0
-1484 -3120 0
-1485 -3119 0
-1483 -3163 0
-1484 -3165 0
-1485 -3164 0
-1483 -3223 0
-1484 -3225 0
-1485 -3224 0
-1498 -3013 0
-1499 -3015 0
-1500 -3014 0
-1498 -3028 0
-1499 -3030 0
-1500 -3029 0
-1498 -3043 0
-1499 -3045 0
-1500 -3044 0
-1498 -3058 0
-1499 -3060 0
-1500 -3059 0
-1498 -3283 0
-1499 -3285 0
-1500 -3284 0
-1513 -2968 0
-1514 -2970 0
-1515 -2969 0
-1513 -2983 0
-1514 -2985 0
-1515 -2984 0
-1513 -2998 0
-1514 -3000 0
-1515 -2999 0
-1513 -3058 0
-1514 -3060 0
-1515 -3059 0
-1513 -3268 0
-1514 -3270 0
-1515 -3269 0
-1528 -2938 0
-1529 -2940 0
-1530 -2939 0
-1528 -2953 0
-1529 -2955 0
-1530 -2954 0
-1528 -2998 0
-1529 -3000 0
-1530 -2999 0
-1528 -3043 0
-1529 -3045 0
-1530 -3044 0
-1528 -3253 0
-1529 -3255 0
-1530 -3254 0
-1543 -2923 0
-1544 -2925 0
-1545 -2924 0
-1543 -2953 0
-1544 -2955 0
-1545 -2954 0
-1543 -2983 0
-1544 -2985 0
-1545 -2984 0
-1543 -3028 0
-1544 -3030 0
-1545 -3029 0
-1543 -3238 0
-1544 -3240 0
-1545 -3239 0
-1558 -2923 0
-1559 -2925 0
-1560 -2924 0
-1558 -2938 0
-1559 -2940 0
-1560 -2939 0
-1558 -2968 0
-1559 -2970 0
-1560 -2969 0
-1558 -3013 0
-1559 -3015 0
-1560 -3014 0
-1558 -3223 0
-1559 -3225 0
-1560 -3224 0
-1573 -2878 0
-1574 -2880 0
-1575 -2879 0
-1573 -2893 0
-1574 -2895 0
-1575 -2894 0
-1573 -2908 0
-1574 -2910 0
-1575 -2909 0
-1573 -3058 0
-1574 -3060 0
-1575 -3059 0
-1573 -3208 0
-1574 -3210 0
-1575 -3209 0
-1588 -2848 0
-1589 -2850 0
-1590 -2849 0
-1588 -2863 0
-1589 -2865 0
-1590 -2864 0
-1588 -2908 0
-1589 -2910 0
-1590 -2909 0
-1588 -3043 0
-1589 -3045 0
-1590 -3044 0
-1588 -3193 0
-1589 -3195 0
-1590 -3194 0
-1603 -2833 0
-1604 -2835 0
-1605 -2834 0
-1603 -2863 0
-1604 -2865 0
-1605 -2864 0
-1603 -2893 0
-1604 -2895 0
-1605 -2894 0
-1603 -3028 0
-1604 -3030 0
-1605 -3029 0
-1603 -3178 0
-1604 -3180 0
-1605 -3179 0
-1618 -2833 0
-1619 -2835 0
-1620 -2834 0
-1618 -2848 0
-1619 -2850 0
-1620 -2849 0
-1618 -2878 0
-1619 -2880 0
-1620 -2879 0
-1618 -3013 0
-1619 -3015 0
-1620 -3014 0
-1618 -3163 0
-1619 -3165 0
-1620 -3164 0
-1633 -2803 0
-1634 -2805 0
-1635 -2804 0
-1633 -2818 0
-1634 -2820 0
-1635 -2819 0
-1633 -2908 0
-1634 -2910 0
-1635 -2909 0
-1633 -2998 0
-1634 -3000 0
-1635 -2999 0
-1633 -3148 0
-1634 -3150 0
-1635 -3149 0
-1648 -2788 0
-1649 -2790 0
-1650 -2789 0
-1648 -2818 0
-1649 -2820 0
-1650 -2819 0
-1648 -2893 0
-1649 -2895 0
-1650 -2894 0
-1648 -2983 0
-1649 -2985 0
-1650 -2984 0
-1648 -3133 0
-1649 -3135 0
-1650 -3134 0
-1663 -2788 0
-1664 -2790 0
-1665 -2789 0
-1663 -2803 0
-1664 -2805 0
-1665 -2804 0
-1663 -2878 0
-1664 -2880 0
-1665 -2879 0
-1663 -2968 0
-1664 -2970 0
-1665 -2969 0
-1663 -3118 0
-1664 -3120 0
-1665 -3119 0
-1678 -2773 0
-1679 -2775 0
-1680 -2774 0
-1678 -2818 0
-1679 -2820 0
-1680 -2819 0
-1678 -2863 0
-1679 -2865 0
-1680 -2864 0
-1678 -2953 0
-1679 -2955 0
-1680 -2954 0
-1678 -3103 0
-1679 -3105 0
-1680 -3104 0
-1693 -2773 0
-1694 -2775 0
-1695 -2774 0
-1693 -2803 0
-1694 -2805 0
-1695 -2804 0
-1693 -2848 0
-1694 -2850 0
-1695 -2849 0
-1693 -2938 0
-1694 -2940 0
-1695 -2939 0
-1693 -3088 0
-1694 -3090 0
-1695 -3089 0
-1708 -2773 0
-1709 -2775 0
-1710 -2774 0
-1708 -2788 0
-1709 -2790 0
-1710 -2789 0
-1708 -2833 0
-1709 -2835 0
-1710 -2834 0
-1708 -2923 0
-1709 -2925 0
-1710 -2924 0
-1708 -3073 0
-1709 -3075 0
-1710 -3074 0
-1723 -2713 0
-1724 -2715 0
-1725 -2714 0
-1723 -2728 0
-1724 -2730 0
-1725 -2729 0
-1723 -2743 0
-1724 -2745 0
-1725 -2744 0
-1723 -2758 0
-1724 -2760 0
-1725 -2759 0
-1723 -3283 0
-1724 -3285 0
-1725 -3284 0
-1738 -2668 0
-1739 -2670 0
-1740 -2669 0
-1738 -2683 0
-1739 -2685 0
-1740 -2684 0
-1738 -2698 0
-1739 -2700 0
-1740 -2699 0
-1738 -2758 0
-1739 -2760 0
-1740 -2759 0
-1738 -3268 0
-1739 -3270 0
-1740 -3269 0
-1753 -2638 0
-1754 -2640 0
-1755 -2639 0
-1753 -2653 0
-1754 -2655 0
-1755 -2654 0
-1753 -2698 0
-1754 -2700 0
-1755 -2699 0
-1753 -2743 0
-1754 -2745 0
-1755 -2744 0
-1753 -3253 0
-1754 -3255 0
-1755 -3254 0
-1768 -2623 0
-1769 -2625 0
-1770 -2624 0
-1768 -2653 0
-1769 -2655 0
-1770 -2654 0
-1768 -2683 0
-1769 -2685 0
-1770 -2684 0
-1768 -2728 0
-1769 -2730 0
-1770 -2729 0
-1768 -3238 0
-1769 -3240 0
-1770 -3239 0
-1783 -2623 0
-1784 -2625 0
-1785 -2624 0
-1783 -2638 0
-1784 -2640 0
-1785 -2639 0
-1783 -2668 0
-1784 -2670 0
-1785 -2669 0
-1783 -2713 0
-1784 -2715 0
-1785 -2714 0
-1783 -3223 0
-1784 -3225 0
-1785 -3224 0
-1798 -2578 0
-1799 -2580 0
-1800 -2579 0
-1798 -2593 0
-1799 -2595 0
-1800 -2594 0
-1798 -2608 0
-1799 -2610 0
-1800 -2609 0
-1798 -2758 0
-1799 -2760 0
-1800 -2759 0
-1798 -3208 0
-1799 -3210 0
-1800 -3209 0
-1813 -2548 0
-1814 -2550 0
-1815 -2549 0
-1813 -2563 0
-1814 -2565 0
-1815 -2564 0
-1813 -2608 0
-1814 -2610 0
-1815 -2609 0
-1813 -2743 0
-1814 -2745 0
-1815 -2744 0
-1813 -3193 0
-1814 -3195 0
-1815 -3194 0
-1828 -2533 0
-1829 -2535 0
-1830 -2534 0
-1828 -2563 0
-1829 -2565 0
-1830 -2564 0
-1828 -2593 0
-1829 -2595 0
-1830 -2594 0
-1828 -2728 0
-1829 -2730 0
-1830 -2729 0
-1828 -3178 0
-1829 -3180 0
-1830 -3179 0
-1843 -2533 0
-1844 -2535 0
-1845 -2534 0
-1843 -2548 0
-1844 -2550 0
-1845 -2549 0
-1843 -2578 0
-1844 -2580 0
-1845 -2579 0
-1843 -2713 0
-1844 -2715 0
-1845 -2714 0
-1843 -3163 0
-1844 -3165 0
-1845 -3164 0
-1858 -2503 0
-1859 -2505 0
-1860 -2504 0
-1858 -2518 0
-1859 -2520 0
-1860 -2519 0
-1858 -2608 0
-1859 -2610 0
-1860 -2609 0
-1858 -2698 0
-1859 -2700 0
-1860 -2699 0
-1858 -3148 0
-1859 -3150 0
-1860 -3149 0
-1873 -2488 0
-1874 -2490 0
-1875 -2489 0
-1873 -2518 0
-1874 -2520 0
-1875 -2519 0
-1873 -2593 0
-1874 -2595 0
-1875 -2594 0
-1873 -2683 0
-1874 -2685 0
-1875 -2684 0
-1873 -3133 0
-1874 -3135 0
-1875 -3134 0
-1888 -2488 0
-1889 -2490 0
-1890 -2489 0
-1888 -2503 0
-1889 -2505 0
-1890 -2504 0
-1888 -2578 0
-1889 -2580 0
-1890 -2579 0
-1888 -2668 0
-1889 -2670 0
-1890 -2669 0
-1888 -3118 0
-1889 -3120 0
-1890 -3119 0
-1903 -2473 0
-1904 -2475 0
-1905 -2474 0
-1903 -2518 0
-1904 -2520 0
-1905 -2519 0
-1903 -2563 0
-1904 -2565 0
-1905 -2564 0
-1903 -2653 0
-1904 -2655 0
-1905 -2654 0
-1903 -3103 0
-1904 -3105 0
-1905 -3104 0
-1918 -2473 0
-1919 -2475 0
-1920 -2474 0
-1918 -2503 0
-1919 -2505 0
-1920 -2504 0
-1918 -2548 0
-1919 -2550 0
-1920 -2549 0
-1918 -2638 0
-1919 -2640 0
-1920 -2639 0
-1918 -3088 0
-1919 -3090 0
-1920 -3089 0
-1933 -2473 0
-1934 -2475 0
-1935 -2474 0
-1933 -2488 0
-1934 -2490 0
-1935 -2489 0
-1933 -2533 0
-1934 -2535 0
-1935 -2534 0
-1933 -2623 0
-1934 -2625 0
-1935 -2624 0
-1933 -3073 0
-1934 -3075 0
-1935 -3074 0
-1948 -2428 0
-1949 -2430 0
-1950 -2429 0
-1948 -2443 0
-1949 -2445 0
-1950 -2444 0
-1948 -2458 0
-1949 -2460 0
-1950 -2459 0
-1948 -2758 0
-1949 -2760 0
-1950 -2759 0
-1948 -3058 0
-1949 -3060 0
-1950 -3059 0
-1963 -2398 0
-1964 -2400 0
-1965 -2399 0
-1963 -2413 0
-1964 -2415 0
-1965 -2414 0
-1963 -2458 0
-1964 -2460 0
-1965 -2459 0
-1963 -2743 0
-1964 -2745 0
-1965 -2744 0
-1963 -3043 0
-1964 -3045 0
-1965 -3044 0
-1978 -2383 0
-1979 -2385 0
-1980 -2384 0
-1978 -2413 0
-1979 -2415 0
-1980 -2414 0
-1978 -2443 0
-1979 -2445 0
-1980 -2444 0
-1978 -2728 0
-1979 -2730 0
-1980 -2729 0
-1978 -3028 0
-1979 -3030 0
-1980 -3029 0
-1993 -2383 0
-1994 -2385 0
-1995 -2384 0
-1993 -2398 0
-1994 -2400 0
-1995 -2399 0
-1993 -2428 0
-1994 -2430 0
-1995 -2429 0
-1993 -2713 0
-1994 -2715 0
-1995 -2714 0
-1993 -3013 0
-1994 -3015 0
-1995 -3014 0
-2008 -2353 0
-2009 -2355 0
-2010 -2354 0
-2008 -2368 0
-2009 -2370 0
-2010 -2369 0
-2008 -2458 0
-2009 -2460 0
-2010 -2459 0
-2008 -2698 0
-2009 -2700 0
-2010 -2699 0
-2008 -2998 0
-2009 -3000 0
-2010 -2999 0
-2023 -2338 0
-2024 -2340 0
-2025 -2339 0
-2023 -2368 0
-2024 -2370 0
-2025 -2369 0
-2023 -2443 0
-2024 -2445 0
-2025 -2444 0
-2023 -2683 0
-2024 -2685 0
-2025 -2684 0
-2023 -2983 0
-2024 -2985 0
-2025 -2984 0
-2038 -2338 0
-2039 -2340 0
-2040 -2339 0
-2038 -2353 0
-2039 -2355 0
-2040 -2354 0
-2038 -2428 0
-2039 -2430 0
-2040 -2429 0
-2038 -2668 0
-2039 -2670 0
-2040 -2669 0
-2038 -2968 0
-2039 -2970 0
-2040 -2969 0
-2053 -2323 0
-2054 -2325 0
-2055 -2324 0
-2053 -2368 0
-2054 -2370 0
-2055 -2369 0
-2053 -2413 0
-2054 -2415 0
-2055 -2414 0
-2053 -2653 0
-2054 -2655 0
-2055 -2654 0
-2053 -2953 0
-2054 -2955 0
-2055 -2954 0
-2068 -2323 0
-2069 -2325 0
-2070 -2324 0
-2068 -2353 0
-2069 -2355 0
-2070 -2354 0
-2068 -2398 0
-2069 -2400 0
-2070 -2399 0
-2068 -2638 0
-2069 -2640 0
-2070 -2639 0
-2068 -2938 0
-2069 -2940 0
-2070 -2939 0
-2083 -2323 0
-2084 -2325 0
-2085 -2324 0
-2083 -2338 0
-2084 -2340 0
-2085 -2339 0
-2083 -2383 0
-2084 -2385 0
-2085 -2384 0
-2083 -2623 0
-2084 -2625 0
-2085 -2624 0
-2083 -2923 0
-2084 -2925 0
-2085 -2924 0
-2098 -2293 0
-2099 -2295 0
-2100 -2294 0
-2098 -2308 0
-2099 -2310 0
-2100 -2309 0
-2098 -2458 0
-2099 -2460 0
-2100 -2459 0
-2098 -2608 0
-2099 -2610 0
-2100 -2609 0
-2098 -2908 0
-2099 -2910 0
-2100 -2909 0
-2113 -2278 0
-2114 -2280 0
-2115 -2279 0
-2113 -2308 0
-2114 -2310 0
-2115 -2309 0
-2113 -2443 0
-2114 -2445 0
-2115 -2444 0
-2113 -2593 0
-2114 -2595 0
-2115 -2594 0
-2113 -2893 0
-2114 -2895 0
-2115 -2894 0
-2128 -2278 0
-2129 -2280 0
-2130 -2279 0
-2128 -2293 0
-2129 -2295 0
-2130 -2294 0
-2128 -2428 0
-2129 -2430 0
-2130 -2429 0
-2128 -2578 0
-2129 -2580 0
-2130 -2579 0
-2128 -2878 0
-2129 -2880 0
-2130 -2879 0
-2143 -2263 0
-2144 -2265 0
-2145 -2264 0
-2143 -2308 0
-2144 -2310 0
-2145 -2309 0
-2143 -2413 0
-2144 -2415 0
-2145 -2414 0
-2143 -2563 0
-2144 -2565 0
-2145 -2564 0
-2143 -2863 0
-2144 -2865 0
-2145 -2864 0
-2158 -2263 0
-2159 -2265 0
-2160 -2264 0
-2158 -2293 0
-2159 -2295 0
-2160 -2294 0
-2158 -2398 0
-2159 -2400 0
-2160 -2399 0
-2158 -2548 0
-2159 -2550 0
-2160 -2549 0
-2158 -2848 0
-2159 -2850 0
-2160 -2849 0
-2173 -2263 0
-2174 -2265 0
-2175 -2264 0
-2173 -2278 0
-2174 -2280 0
-2175 -2279 0
-2173 -2383 0
-2174 -2385 0
-2175 -2384 0
-2173 -2533 0
-2174 -2535 0
-2175 -2534 0
-2173 -2833 0
-2174 -2835 0
-2175 -2834 0
-2188 -2248 0
-2189 -2250 0
-2190 -2249 0
-2188 -2308 0
-2189 -2310 0
-2190 -2309 0
-2188 -2368 0
-2189 -2370 0
-2190 -2369 0
-2188 -2518 0
-2189 -2520 0
-2190 -2519 0
-2188 -2818 0
-2189 -2820 0
-2190 -2819 0
-2203 -2248 0
-2204 -2250 0
-2205 -2249 0
-2203 -2293 0
-2204 -2295 0
-2205 -2294 0
-2203 -2353 0
-2204 -2355 0
-2205 -2354 0
-2203 -2503 0
-2204 -2505 0
-2205 -2504 0
-2203 -2803 0
-2204 -2805 0
-2205 -2804 0
-2218 -2248 0
-2219 -2250 0
-2220 -2249 0
-2218 -2278 0
-2219 -2280 0
-2220 -2279 0
-2218 -2338 0
-2219 -2340 0
-2220 -2339 0
-2218 -2488 0
-2219 -2490 0
-2220 -2489 0
-2218 -2788 0
-2219 -2790 0
-2220 -2789 0
-2233 -2248 0
-2234 -2250 0
-2235 -2249 0
-2233 -2263 0
-2234 -2265 0
-2235 -2264 0
-2233 -2323 0
-2234 -2325 0
-2235 -2324 0
-2233 -2473 0
-2234 -2475 0
-2235 -2474 0
-2233 -2773 0
-2234 -2775 0
-2235 -2774 0
-2248 -3283 0
-2249 -3285 0
-2250 -3284 0
-2263 -3268 0
-2264 -3270 0
-2265 -3269 0
-2278 -3253 0
-2279 -3255 0
-2280 -3254 0
-2293 -3238 0
-2294 -3240 0
-2295 -3239 0
-2308 -3223 0
-2309 -3225 0
-2310 -3224 0
-2323 -3208 0
-2324 -3210 0
-2325 -3209 0
-2338 -3193 0
-2339 -3195 0
-2340 -3194 0
-2353 -3178 0
-2354 -3180 0
-2355 -3179 0
-2368 -3163 0
-2369 -3165 0
-2370 -3164 0
-2383 -3148 0
-2384 -3150 0
-2385 -3149 0
-2398 -3133 0
-2399 -3135 0
-2400 -3134 0
-2413 -3118 0
-2414 -3120 0
-2415 -3119 0
-2428 -3103 0
-2429 -3105 0
-2430 -3104 0
-2443 -3088 0
-2444 -3090 0
-2445 -3089 0
-2458 -3073 0
-2459 -3075 0
-2460 -3074 0
-2473 -3058 0
-2474 -3060 0
-2475 -3059 0
-2488 -3043 0
-2489 -3045 0
-2490 -3044 0
-2503 -3028 0
-2504 -3030 0
-2505 -3029 0
-2518 -3013 0
-2519 -3015 0
-2520 -3014 0
-2533 -2998 0
-2534 -3000 0
-2535 -2999 0
-2548 -2983 0
-2549 -2985 0
-2550 -2984 0
-2563 -2968 0
-2564 -2970 0
-2565 -2969 0
-2578 -2953 0
-2579 -2955 0
-2580 -2954 0
-2593 -2938 0
-2594 -2940 0
-2595 -2939 0
-2608 -2923 0
-2609 -2925 0
-2610 -2924 0
-2623 -2908 0
-2624 -2910 0
-2625 -2909 0
-2638 -2893 0
-2639 -2895 0
-2640 -2894 0
-2653 -2878 0
-2654 -2880 0
-2655 -2879 0
-2668 -2863 0
-2669 -2865 0
-2670 -2864 0
-2683 -2848 0
-2684 -2850 0
-2685 -2849 0
-2698 -2833 0
-2699 -2835 0
-2700 -2834 0
-2713 -2818 0
-2714 -2820 0
-2715 -2819 0
-2728 -2803 0
-2729 -2805 0
-2730 -2804 0
-2743 -2788 0
-2744 -2790 0
-2745 -2789 0
-2758 -2773 0
-2759 -2775 0
-2760 -2774 0
1 0
4 0
7 0
10 0
13 0
16 0
19 0
22 0
25 0
