c Phi(K_7, 2K_3), reduction=none
c copies: 70
c UNSAT is equivalent to R(2K_3, Z_3) <= 7
p cnf 273 994
1 2 3 0
-1 -2 0
-1 -3 0
-2 -3 0
4 5 6 0
-4 -5 0
-4 -6 0
-5 -6 0
7 8 9 0
-7 -8 0
-7 -9 0
-8 -9 0
10 11 12 0
-10 -11 0
-10 -12 0
-11 -12 0
13 14 15 0
-13 -14 0
-13 -15 0
-14 -15 0
16 17 18 0
-16 -17 0
-16 -18 0
-17 -18 0
19 20 21 0
-19 -20 0
-19 -21 0
-20 -21 0
22 23 24 0
-22 -23 0
-22 -24 0
-23 -24 0
25 26 27 0
-25 -26 0
-25 -27 0
-26 -27 0
28 29 30 0
-28 -29 0
-28 -30 0
-29 -30 0
31 32 33 0
-31 -32 0
-31 -33 0
-32 -33 0
34 35 36 0
-34 -35 0
-34 -36 0
-35 -36 0
37 38 39 0
-37 -38 0
-37 -39 0
-38 -39 0
40 41 42 0
-40 -41 0
-40 -42 0
-41 -42 0
43 44 45 0
-43 -44 0
-43 -45 0
-44 -45 0
46 47 48 0
-46 -47 0
-46 -48 0
-47 -48 0
49 50 51 0
-49 -50 0
-49 -51 0
-50 -51 0
52 53 54 0
-52 -53 0
-52 -54 0
-53 -54 0
55 56 57 0
-55 -56 0
-55 -57 0
-56 -57 0
58 59 60 0
-58 -59 0
-58 -60 0
-59 -60 0
61 62 63 0
-61 -62 0
-61 -63 0
-62 -63 0
64 65 66 0
-1 -4 64 0
-1 -5 65 0
-1 -6 66 0
-2 -4 65 0
-2 -5 66 0
-2 -6 64 0
-3 -4 66 0
-3 -5 64 0
-3 -6 65 0
67 68 69 0
-64 -19 67 0
-64 -20 68 0
-64 -21 69 0
-65 -19 68 0
-65 -20 69 0
-65 -21 67 0
-66 -19 69 0
-66 -20 67 0
-66 -21 68 0
70 71 72 0
-1 -7 70 0
-1 -8 71 0
-1 -9 72 0
-2 -7 71 0
-2 -8 72 0
-2 -9 70 0
-3 -7 72 0
-3 -8 70 0
-3 -9 71 0
73 74 75 0
-70 -22 73 0
-70 -23 74 0
-70 -24 75 0
-71 -22 74 0
-71 -23 75 0
-71 -24 73 0
-72 -22 75 0
-72 -23 73 0
-72 -24 74 0
76 77 78 0
-1 -10 76 0
-1 -11 77 0
-1 -12 78 0
-2 -10 77 0
-2 -11 78 0
-2 -12 76 0
-3 -10 78 0
-3 -11 76 0
-3 -12 77 0
79 80 81 0
-76 -25 79 0
-76 -26 80 0
-76 -27 81 0
-77 -25 80 0
-77 -26 81 0
-77 -27 79 0
-78 -25 81 0
-78 -26 79 0
-78 -27 80 0
82 83 84 0
-1 -13 82 0
-1 -14 83 0
-1 -15 84 0
-2 -13 83 0
-2 -14 84 0
-2 -15 82 0
-3 -13 84 0
-3 -14 82 0
-3 -15 83 0
85 86 87 0
-82 -28 85 0
-82 -29 86 0
-82 -30 87 0
-83 -28 86 0
-83 -29 87 0
-83 -30 85 0
-84 -28 87 0
-84 -29 85 0
-84 -30 86 0
88 89 90 0
-1 -16 88 0
-1 -17 89 0
-1 -18 90 0
-2 -16 89 0
-2 -17 90 0
-2 -18 88 0
-3 -16 90 0
-3 -17 88 0
-3 -18 89 0
91 92 93 0
-88 -31 91 0
-88 -32 92 0
-88 -33 93 0
-89 -31 92 0
-89 -32 93 0
-89 -33 91 0
-90 -31 93 0
-90 -32 91 0
-90 -33 92 0
94 95 96 0
-4 -7 94 0
-4 -8 95 0
-4 -9 96 0
-5 -7 95 0
-5 -8 96 0
-5 -9 94 0
-6 -7 96 0
-6 -8 94 0
-6 -9 95 0
97 98 99 0
-94 -34 97 0
-94 -35 98 0
-94 -36 99 0
-95 -34 98 0
-95 -35 99 0
-95 -36 97 0
-96 -34 99 0
-96 -35 97 0
-96 -36 98 0
100 101 102 0
-4 -10 100 0
-4 -11 101 0
-4 -12 102 0
-5 -10 101 0
-5 -11 102 0
-5 -12 100 0
-6 -10 102 0
-6 -11 100 0
-6 -12 101 0
103 104 105 0
-100 -37 103 0
-100 -38 104 0
-100 -39 105 0
-101 -37 104 0
-101 -38 105 0
-101 -39 103 0
-102 -37 105 0
-102 -38 103 0
-102 -39 104 0
106 107 108 0
-4 -13 106 0
-4 -14 107 0
-4 -15 108 0
-5 -13 107 0
-5 -14 108 0
-5 -15 106 0
-6 -13 108 0
-6 -14 106 0
-6 -15 107 0
109 110 111 0
-106 -40 109 0
-106 -41 110 0
-106 -42 111 0
-107 -40 110 0
-107 -41 111 0
-107 -42 109 0
-108 -40 111 0
-108 -41 109 0
-108 -42 110 0
112 113 114 0
-4 -16 112 0
-4 -17 113 0
-4 -18 114 0
-5 -16 113 0
-5 -17 114 0
-5 -18 112 0
-6 -16 114 0
-6 -17 112 0
-6 -18 113 0
115 116 117 0
-112 -43 115 0
-112 -44 116 0
-112 -45 117 0
-113 -43 116 0
-113 -44 117 0
-113 -45 115 0
-114 -43 117 0
-114 -44 115 0
-114 -45 116 0
118 119 120 0
-7 -10 118 0
-7 -11 119 0
-7 -12 120 0
-8 -10 119 0
-8 -11 120 0
-8 -12 118 0
-9 -10 120 0
-9 -11 118 0
-9 -12 119 0
121 122 123 0
-118 -46 121 0
-118 -47 122 0
-118 -48 123 0
-119 -46 122 0
-119 -47 123 0
-119 -48 121 0
-120 -46 123 0
-120 -47 121 0
-120 -48 122 0
124 125 126 0
-7 -13 124 0
-7 -14 125 0
-7 -15 126 0
-8 -13 125 0
-8 -14 126 0
-8 -15 124 0
-9 -13 126 0
-9 -14 124 0
-9 -15 125 0
127 128 129 0
-124 -49 127 0
-124 -50 128 0
-124 -51 129 0
-125 -49 128 0
-125 -50 129 0
-125 -51 127 0
-126 -49 129 0
-126 -50 127 0
-126 -51 128 0
130 131 132 0
-7 -16 130 0
-7 -17 131 0
-7 -18 132 0
-8 -16 131 0
-8 -17 132 0
-8 -18 130 0
-9 -16 132 0
-9 -17 130 0
-9 -18 131 0
133 134 135 0
-130 -52 133 0
-130 -53 134 0
-130 -54 135 0
-131 -52 134 0
-131 -53 135 0
-131 -54 133 0
-132 -52 135 0
-132 -53 133 0
-132 -54 134 0
136 137 138 0
-10 -13 136 0
-10 -14 137 0
-10 -15 138 0
-11 -13 137 0
-11 -14 138 0
-11 -15 136 0
-12 -13 138 0
-12 -14 136 0
-12 -15 137 0
139 140 141 0
-136 -55 139 0
-136 -56 140 0
-136 -57 141 0
-137 -55 140 0
-137 -56 141 0
-137 -57 139 0
-138 -55 141 0
-138 -56 139 0
-138 -57 140 0
142 143 144 0
-10 -16 142 0
-10 -17 143 0
-10 -18 144 0
-11 -16 143 0
-11 -17 144 0
-11 -18 142 0
-12 -16 144 0
-12 -17 142 0
-12 -18 143 0
145 146 147 0
-142 -58 145 0
-142 -59 146 0
-142 -60 147 0
-143 -58 146 0
-143 -59 147 0
-143 -60 145 0
-144 -58 147 0
-144 -59 145 0
-144 -60 146 0
148 149 150 0
-13 -16 148 0
-13 -17 149 0
-13 -18 150 0
-14 -16 149 0
-14 -17 150 0
-14 -18 148 0
-15 -16 150 0
-15 -17 148 0
-15 -18 149 0
151 152 153 0
-148 -61 151 0
-148 -62 152 0
-148 -63 153 0
-149 -61 152 0
-149 -62 153 0
-149 -63 151 0
-150 -61 153 0
-150 -62 151 0
-150 -63 152 0
154 155 156 0
-19 -22 154 0
-19 -23 155 0
-19 -24 156 0
-20 -22 155 0
-20 -23 156 0
-20 -24 154 0
-21 -22 156 0
-21 -23 154 0
-21 -24 155 0
157 158 159 0
-154 -34 157 0
-154 -35 158 0
-154 -36 159 0
-155 -34 158 0
-155 -35 159 0
-155 -36 157 0
-156 -34 159 0
-156 -35 157 0
-156 -36 158 0
160 161 162 0
-19 -25 160 0
-19 -26 161 0
-19 -27 162 0
-20 -25 161 0
-20 -26 162 0
-20 -27 160 0
-21 -25 162 0
-21 -26 160 0
-21 -27 161 0
163 164 165 0
-160 -37 163 0
-160 -38 164 0
-160 -39 165 0
-161 -37 164 0
-161 -38 165 0
-161 -39 163 0
-162 -37 165 0
-162 -38 163 0
-162 -39 164 0
166 167 168 0
-19 -28 166 0
-19 -29 167 0
-19 -30 168 0
-20 -28 167 0
-20 -29 168 0
-20 -30 166 0
-21 -28 168 0
-21 -29 166 0
-21 -30 167 0
169 170 171 0
-166 -40 169 0
-166 -41 170 0
-166 -42 171 0
-167 -40 170 0
-167 -41 171 0
-167 -42 169 0
-168 -40 171 0
-168 -41 169 0
-168 -42 170 0
172 173 174 0
-19 -31 172 0
-19 -32 173 0
-19 -33 174 0
-20 -31 173 0
-20 -32 174 0
-20 -33 172 0
-21 -31 174 0
-21 -32 172 0
-21 -33 173 0
175 176 177 0
-172 -43 175 0
-172 -44 176 0
-172 -45 177 0
-173 -43 176 0
-173 -44 177 0
-173 -45 175 0
-174 -43 177 0
-174 -44 175 0
-174 -45 176 0
178 179 180 0
-22 -25 178 0
-22 -26 179 0
-22 -27 180 0
-23 -25 179 0
-23 -26 180 0
-23 -27 178 0
-24 -25 180 0
-24 -26 178 0
-24 -27 179 0
181 182 183 0
-178 -46 181 0
-178 -47 182 0
-178 -48 183 0
-179 -46 182 0
-179 -47 183 0
-179 -48 181 0
-180 -46 183 0
-180 -47 181 0
-180 -48 182 0
184 185 186 0
-22 -28 184 0
-22 -29 185 0
-22 -30 186 0
-23 -28 185 0
-23 -29 186 0
-23 -30 184 0
-24 -28 186 0
-24 -29 184 0
-24 -30 185 0
187 188 189 0
-184 -49 187 0
-184 -50 188 0
-184 -51 189 0
-185 -49 188 0
-185 -50 189 0
-185 -51 187 0
-186 -49 189 0
-186 -50 187 0
-186 -51 188 0
190 191 192 0
-22 -31 190 0
-22 -32 191 0
-22 -33 192 0
-23 -31 191 0
-23 -32 192 0
-23 -33 190 0
-24 -31 192 0
-24 -32 190 0
-24 -33 191 0
193 194 195 0
-190 -52 193 0
-190 -53 194 0
-190 -54 195 0
-191 -52 194 0
-191 -53 195 0
-191 -54 193 0
-192 -52 195 0
-192 -53 193 0
-192 -54 194 0
196 197 198 0
-25 -28 196 0
-25 -29 197 0
-25 -30 198 0
-26 -28 197 0
-26 -29 198 0
-26 -30 196 0
-27 -28 198 0
-27 -29 196 0
-27 -30 197 0
199 200 201 0
-196 -55 199 0
-196 -56 200 0
-196 -57 201 0
-197 -55 200 0
-197 -56 201 0
-197 -57 199 0
-198 -55 201 0
-198 -56 199 0
-198 -57 200 0
202 203 204 0
-25 -31 202 0
-25 -32 203 0
-25 -33 204 0
-26 -31 203 0
-26 -32 204 0
-26 -33 202 0
-27 -31 204 0
-27 -32 202 0
-27 -33 203 0
205 206 207 0
-202 -58 205 0
-202 -59 206 0
-202 -60 207 0
-203 -58 206 0
-203 -59 207 0
-203 -60 205 0
-204 -58 207 0
-204 -59 205 0
-204 -60 206 0
208 209 210 0
-28 -31 208 0
-28 -32 209 0
-28 -33 210 0
-29 -31 209 0
-29 -32 210 0
-29 -33 208 0
-30 -31 210 0
-30 -32 208 0
-30 -33 209 0
211 212 213 0
-208 -61 211 0
-208 -62 212 0
-208 -63 213 0
-209 -61 212 0
-209 -62 213 0
-209 -63 211 0
-210 -61 213 0
-210 -62 211 0
-210 -63 212 0
214 215 216 0
-34 -37 214 0
-34 -38 215 0
-34 -39 216 0
-35 -37 215 0
-35 -38 216 0
-35 -39 214 0
-36 -37 216 0
-36 -38 214 0
-36 -39 215 0
217 218 219 0
-214 -46 217 0
-214 -47 218 0
-214 -48 219 0
-215 -46 218 0
-215 -47 219 0
-215 -48 217 0
-216 -46 219 0
-216 -47 217 0
-216 -48 218 0
220 221 222 0
-34 -40 220 0
-34 -41 221 0
-34 -42 222 0
-35 -40 221 0
-35 -41 222 0
-35 -42 220 0
-36 -40 222 0
-36 -41 220 0
-36 -42 221 0
223 224 225 0
-220 -49 223 0
-220 -50 224 0
-220 -51 225 0
-221 -49 224 0
-221 -50 225 0
-221 -51 223 0
-222 -49 225 0
-222 -50 223 0
-222 -51 224 0
226 227 228 0
-34 -43 226 0
-34 -44 227 0
-34 -45 228 0
-35 -43 227 0
-35 -44 228 0
-35 -45 226 0
-36 -43 228 0
-36 -44 226 0
-36 -45 227 0
229 230 231 0
-226 -52 229 0
-226 -53 230 0
-226 -54 231 0
-227 -52 230 0
-227 -53 231 0
-227 -54 229 0
-228 -52 231 0
-228 -53 229 0
-228 -54 230 0
232 233 234 0
-37 -40 232 0
-37 -41 233 0
-37 -42 234 0
-38 -40 233 0
-38 -41 234 0
-38 -42 232 0
-39 -40 234 0
-39 -41 232 0
-39 -42 233 0
235 236 237 0
-232 -55 235 0
-232 -56 236 0
-232 -57 237 0
-233 -55 236 0
-233 -56 237 0
-233 -57 235 0
-234 -55 237 0
-234 -56 235 0
-234 -57 236 0
238 239 240 0
-37 -43 238 0
-37 -44 239 0
-37 -45 240 0
-38 -43 239 0
-38 -44 240 0
-38 -45 238 0
-39 -43 240 0
-39 -44 238 0
-39 -45 239 0
241 242 243 0
-238 -58 241 0
-238 -59 242 0
-238 -60 243 0
-239 -58 242 0
-239 -59 243 0
-239 -60 241 0
-240 -58 243 0
-240 -59 241 0
-240 -60 242 0
244 245 246 0
-40 -43 244 0
-40 -44 245 0
-40 -45 246 0
-41 -43 245 0
-41 -44 246 0
-41 -45 244 0
-42 -43 246 0
-42 -44 244 0
-42 -45 245 0
247 248 249 0
-244 -61 247 0
-244 -62 248 0
-244 -63 249 0
-245 -61 248 0
-245 -62 249 0
-245 -63 247 0
-246 -61 249 0
-246 -62 247 0
-246 -63 248 0
250 251 252 0
-46 -49 250 0
-46 -50 251 0
-46 -51 252 0
-47 -49 251 0
-47 -50 252 0
-47 -51 250 0
-48 -49 252 0
-48 -50 250 0
-48 -51 251 0
253 254 255 0
-250 -55 253 0
-250 -56 254 0
-250 -57 255 0
-251 -55 254 0
-251 -56 255 0
-251 -57 253 0
-252 -55 255 0
-252 -56 253 0
-252 -57 254 0
256 257 258 0
-46 -52 256 0
-46 -53 257 0
-46 -54 258 0
-47 -52 257 0
-47 -53 258 0
-47 -54 256 0
-48 -52 258 0
-48 -53 256 0
-48 -54 257 0
259 260 261 0
-256 -58 259 0
-256 -59 260 0
-256 -60 261 0
-257 -58 260 0
-257 -59 261 0
-257 -60 259 0
-258 -58 261 0
-258 -59 259 0
-258 -60 260 0
262 263 264 0
-49 -52 262 0
-49 -53 263 0
-49 -54 264 0
-50 -52 263 0
-50 -53 264 0
-50 -54 262 0
-51 -52 264 0
-51 -53 262 0
-51 -54 263 0
265 266 267 0
-262 -61 265 0
-262 -62 266 0
-262 -63 267 0
-263 -61 266 0
-263 -62 267 0
-263 -63 265 0
-264 -61 267 0
-264 -62 265 0
-264 -63 266 0
268 269 270 0
-55 -58 268 0
-55 -59 269 0
-55 -60 270 0
-56 -58 269 0
-56 -59 270 0
-56 -60 268 0
-57 -58 270 0
-57 -59 268 0
-57 -60 269 0
271 272 273 0
-268 -61 271 0
-268 -62 272 0
-268 -63 273 0
-269 -61 272 0
-269 -62 273 0
-269 -63 271 0
-270 -61 273 0
-270 -62 271 0
-270 -63 272 0
-67 -253 0
-68 -255 0
-69 -254 0
-67 -259 0
-68 -261 0
-69 -260 0
-67 -265 0
-68 -267 0
-69 -266 0
-67 -271 0
-68 -273 0
-69 -272 0
-73 -235 0
-74 -237 0
-75 -236 0
-73 -241 0
-74 -243 0
-75 -242 0
-73 -247 0
-74 -249 0
-75 -248 0
-73 -271 0
-74 -273 0
-75 -272 0
-79 -223 0
-80 -225 0
-81 -224 0
-79 -229 0
-80 -231 0
-81 -230 0
-79 -247 0
-80 -249 0
-81 -248 0
-79 -265 0
-80 -267 0
-81 -266 0
-85 -217 0
-86 -219 0
-87 -218 0
-85 -229 0
-86 -231 0
-87 -230 0
-85 -241 0
-86 -243 0
-87 -242 0
-85 -259 0
-86 -261 0
-87 -260 0
-91 -217 0
-92 -219 0
-93 -218 0
-91 -223 0
-92 -225 0
-93 -224 0
-91 -235 0
-92 -237 0
-93 -236 0
-91 -253 0
-92 -255 0
-93 -254 0
-97 -199 0
-98 -201 0
-99 -200 0
-97 -205 0
-98 -207 0
-99 -206 0
-97 -211 0
-98 -213 0
-99 -212 0
-97 -271 0
-98 -273 0
-99 -272 0
-103 -187 0
-104 -189 0
-105 -188 0
-103 -193 0
-104 -195 0
-105 -194 0
-103 -211 0
-104 -213 0
-105 -212 0
-103 -265 0
-104 -267 0
-105 -266 0
-109 -181 0
-110 -183 0
-111 -182 0
-109 -193 0
-110 -195 0
-111 -194 0
-109 -205 0
-110 -207 0
-111 -206 0
-109 -259 0
-110 -261 0
-111 -260 0
-115 -181 0
-116 -183 0
-117 -182 0
-115 -187 0
-116 -189 0
-117 -188 0
-115 -199 0
-116 -201 0
-117 -200 0
-115 -253 0
-116 -255 0
-117 -254 0
-121 -169 0
-122 -171 0
-123 -170 0
-121 -175 0
-122 -177 0
-123 -176 0
-121 -211 0
-122 -213 0
-123 -212 0
-121 -247 0
-122 -249 0
-123 -248 0
-127 -163 0
-128 -165 0
-129 -164 0
-127 -175 0
-128 -177 0
-129 -176 0
-127 -205 0
-128 -207 0
-129 -206 0
-127 -241 0
-128 -243 0
-129 -242 0
-133 -163 0
-134 -165 0
-135 -164 0
-133 -169 0
-134 -171 0
-135 -170 0
-133 -199 0
-134 -201 0
-135 -200 0
-133 -235 0
-134 -237 0
-135 -236 0
-139 -157 0
-140 -159 0
-141 -158 0
-139 -175 0
-140 -177 0
-141 -176 0
-139 -193 0
-140 -195 0
-141 -194 0
-139 -229 0
-140 -231 0
-141 -230 0
-145 -157 0
-146 -159 0
-147 -158 0
-145 -169 0
-146 -171 0
-147 -170 0
-145 -187 0
-146 -189 0
-147 -188 0
-145 -223 0
-146 -225 0
-147 -224 0
-151 -157 0
-152 -159 0
-153 -158 0
-151 -163 0
-152 -165 0
-153 -164 0
-151 -181 0
-152 -183 0
-153 -182 0
-151 -217 0
-152 -219 0
-153 -218 0
-157 -271 0
-158 -273 0
-159 -272 0
-163 -265 0
-164 -267 0
-165 -266 0
-169 -259 0
-170 -261 0
-171 -260 0
-175 -253 0
-176 -255 0
-177 -254 0
-181 -247 0
-182 -249 0
-183 -248 0
-187 -241 0
-188 -243 0
-189 -242 0
-193 -235 0
-194 -237 0
-195 -236 0
-199 -229 0
-200 -231 0
-201 -230 0
-205 -223 0
-206 -225 0
-207 -224 0
-211 -217 0
-212 -219 0
-213 -218 0
