c Phi(K_8, 2K_3), reduction=none
c copies: 280
c UNSAT is equivalent to R(2K_3, Z_3) <= 8
p cnf 420 2072
1 2 3 0
-1 -2 0
-1 -3 0
-2 -3 0
4 5 6 0
-4 -5 0
-4 -6 0
-5 -6 0
7 8 9 0
-7 -8 0
-7 -9 0
-8 -9 0
10 11 12 0
-10 -11 0
-10 -12 0
-11 -12 0
13 14 15 0
-13 -14 0
-13 -15 0
-14 -15 0
16 17 18 0
-16 -17 0
-16 -18 0
-17 -18 0
19 20 21 0
-19 -20 0
-19 -21 0
-20 -21 0
22 23 24 0
-22 -23 0
-22 -24 0
-23 -24 0
25 26 27 0
-25 -26 0
-25 -27 0
-26 -27 0
28 29 30 0
-28 -29 0
-28 -30 0
-29 -30 0
31 32 33 0
-31 -32 0
-31 -33 0
-32 -33 0
34 35 36 0
-34 -35 0
-34 -36 0
-35 -36 0
37 38 39 0
-37 -38 0
-37 -39 0
-38 -39 0
40 41 42 0
-40 -41 0
-40 -42 0
-41 -42 0
43 44 45 0
-43 -44 0
-43 -45 0
-44 -45 0
46 47 48 0
-46 -47 0
-46 -48 0
-47 -48 0
49 50 51 0
-49 -50 0
-49 -51 0
-50 -51 0
52 53 54 0
-52 -53 0
-52 -54 0
-53 -54 0
55 56 57 0
-55 -56 0
-55 -57 0
-56 -57 0
58 59 60 0
-58 -59 0
-58 -60 0
-59 -60 0
61 62 63 0
-61 -62 0
-61 -63 0
-62 -63 0
64 65 66 0
-64 -65 0
-64 -66 0
-65 -66 0
67 68 69 0
-67 -68 0
-67 -69 0
-68 -69 0
70 71 72 0
-70 -71 0
-70 -72 0
-71 -72 0
73 74 75 0
-73 -74 0
-73 -75 0
-74 -75 0
76 77 78 0
-76 -77 0
-76 -78 0
-77 -78 0
79 80 81 0
-79 -80 0
-79 -81 0
-80 -81 0
82 83 84 0
-82 -83 0
-82 -84 0
-83 -84 0
85 86 87 0
-1 -4 85 0
-1 -5 86 0
-1 -6 87 0
-2 -4 86 0
-2 -5 87 0
-2 -6 85 0
-3 -4 87 0
-3 -5 85 0
-3 -6 86 0
88 89 90 0
-85 -22 88 0
-85 -23 89 0
-85 -24 90 0
-86 -22 89 0
-86 -23 90 0
-86 -24 88 0
-87 -22 90 0
-87 -23 88 0
-87 -24 89 0
91 92 93 0
-1 -7 91 0
-1 -8 92 0
-1 -9 93 0
-2 -7 92 0
-2 -8 93 0
-2 -9 91 0
-3 -7 93 0
-3 -8 91 0
-3 -9 92 0
94 95 96 0
-91 -25 94 0
-91 -26 95 0
-91 -27 96 0
-92 -25 95 0
-92 -26 96 0
-92 -27 94 0
-93 -25 96 0
-93 -26 94 0
-93 -27 95 0
97 98 99 0
-1 -10 97 0
-1 -11 98 0
-1 -12 99 0
-2 -10 98 0
-2 -11 99 0
-2 -12 97 0
-3 -10 99 0
-3 -11 97 0
-3 -12 98 0
100 101 102 0
-97 -28 100 0
-97 -29 101 0
-97 -30 102 0
-98 -28 101 0
-98 -29 102 0
-98 -30 100 0
-99 -28 102 0
-99 -29 100 0
-99 -30 101 0
103 104 105 0
-1 -13 103 0
-1 -14 104 0
-1 -15 105 0
-2 -13 104 0
-2 -14 105 0
-2 -15 103 0
-3 -13 105 0
-3 -14 103 0
-3 -15 104 0
106 107 108 0
-103 -31 106 0
-103 -32 107 0
-103 -33 108 0
-104 -31 107 0
-104 -32 108 0
-104 -33 106 0
-105 -31 108 0
-105 -32 106 0
-105 -33 107 0
109 110 111 0
-1 -16 109 0
-1 -17 110 0
-1 -18 111 0
-2 -16 110 0
-2 -17 111 0
-2 -18 109 0
-3 -16 111 0
-3 -17 109 0
-3 -18 110 0
112 113 114 0
-109 -34 112 0
-109 -35 113 0
-109 -36 114 0
-110 -34 113 0
-110 -35 114 0
-110 -36 112 0
-111 -34 114 0
-111 -35 112 0
-111 -36 113 0
115 116 117 0
-1 -19 115 0
-1 -20 116 0
-1 -21 117 0
-2 -19 116 0
-2 -20 117 0
-2 -21 115 0
-3 -19 117 0
-3 -20 115 0
-3 -21 116 0
118 119 120 0
-115 -37 118 0
-115 -38 119 0
-115 -39 120 0
-116 -37 119 0
-116 -38 120 0
-116 -39 118 0
-117 -37 120 0
-117 -38 118 0
-117 -39 119 0
121 122 123 0
-4 -7 121 0
-4 -8 122 0
-4 -9 123 0
-5 -7 122 0
-5 -8 123 0
-5 -9 121 0
-6 -7 123 0
-6 -8 121 0
-6 -9 122 0
124 125 126 0
-121 -40 124 0
-121 -41 125 0
-121 -42 126 0
-122 -40 125 0
-122 -41 126 0
-122 -42 124 0
-123 -40 126 0
-123 -41 124 0
-123 -42 125 0
127 128 129 0
-4 -10 127 0
-4 -11 128 0
-4 -12 129 0
-5 -10 128 0
-5 -11 129 0
-5 -12 127 0
-6 -10 129 0
-6 -11 127 0
-6 -12 128 0
130 131 132 0
-127 -43 130 0
-127 -44 131 0
-127 -45 132 0
-128 -43 131 0
-128 -44 132 0
-128 -45 130 0
-129 -43 132 0
-129 -44 130 0
-129 -45 131 0
133 134 135 0
-4 -13 133 0
-4 -14 134 0
-4 -15 135 0
-5 -13 134 0
-5 -14 135 0
-5 -15 133 0
-6 -13 135 0
-6 -14 133 0
-6 -15 134 0
136 137 138 0
-133 -46 136 0
-133 -47 137 0
-133 -48 138 0
-134 -46 137 0
-134 -47 138 0
-134 -48 136 0
-135 -46 138 0
-135 -47 136 0
-135 -48 137 0
139 140 141 0
-4 -16 139 0
-4 -17 140 0
-4 -18 141 0
-5 -16 140 0
-5 -17 141 0
-5 -18 139 0
-6 -16 141 0
-6 -17 139 0
-6 -18 140 0
142 143 144 0
-139 -49 142 0
-139 -50 143 0
-139 -51 144 0
-140 -49 143 0
-140 -50 144 0
-140 -51 142 0
-141 -49 144 0
-141 -50 142 0
-141 -51 143 0
145 146 147 0
-4 -19 145 0
-4 -20 146 0
-4 -21 147 0
-5 -19 146 0
-5 -20 147 0
-5 -21 145 0
-6 -19 147 0
-6 -20 145 0
-6 -21 146 0
148 149 150 0
-145 -52 148 0
-145 -53 149 0
-145 -54 150 0
-146 -52 149 0
-146 -53 150 0
-146 -54 148 0
-147 -52 150 0
-147 -53 148 0
-147 -54 149 0
151 152 153 0
-7 -10 151 0
-7 -11 152 0
-7 -12 153 0
-8 -10 152 0
-8 -11 153 0
-8 -12 151 0
-9 -10 153 0
-9 -11 151 0
-9 -12 152 0
154 155 156 0
-151 -55 154 0
-151 -56 155 0
-151 -57 156 0
-152 -55 155 0
-152 -56 156 0
-152 -57 154 0
-153 -55 156 0
-153 -56 154 0
-153 -57 155 0
157 158 159 0
-7 -13 157 0
-7 -14 158 0
-7 -15 159 0
-8 -13 158 0
-8 -14 159 0
-8 -15 157 0
-9 -13 159 0
-9 -14 157 0
-9 -15 158 0
160 161 162 0
-157 -58 160 0
-157 -59 161 0
-157 -60 162 0
-158 -58 161 0
-158 -59 162 0
-158 -60 160 0
-159 -58 162 0
-159 -59 160 0
-159 -60 161 0
163 164 165 0
-7 -16 163 0
-7 -17 164 0
-7 -18 165 0
-8 -16 164 0
-8 -17 165 0
-8 -18 163 0
-9 -16 165 0
-9 -17 163 0
-9 -18 164 0
166 167 168 0
-163 -61 166 0
-163 -62 167 0
-163 -63 168 0
-164 -61 167 0
-164 -62 168 0
-164 -63 166 0
-165 -61 168 0
-165 -62 166 0
-165 -63 167 0
169 170 171 0
-7 -19 169 0
-7 -20 170 0
-7 -21 171 0
-8 -19 170 0
-8 -20 171 0
-8 -21 169 0
-9 -19 171 0
-9 -20 169 0
-9 -21 170 0
172 173 174 0
-169 -64 172 0
-169 -65 173 0
-169 -66 174 0
-170 -64 173 0
-170 -65 174 0
-170 -66 172 0
-171 -64 174 0
-171 -65 172 0
-171 -66 173 0
175 176 177 0
-10 -13 175 0
-10 -14 176 0
-10 -15 177 0
-11 -13 176 0
-11 -14 177 0
-11 -15 175 0
-12 -13 177 0
-12 -14 175 0
-12 -15 176 0
178 179 180 0
-175 -67 178 0
-175 -68 179 0
-175 -69 180 0
-176 -67 179 0
-176 -68 180 0
-176 -69 178 0
-177 -67 180 0
-177 -68 178 0
-177 -69 179 0
181 182 183 0
-10 -16 181 0
-10 -17 182 0
-10 -18 183 0
-11 -16 182 0
-11 -17 183 0
-11 -18 181 0
-12 -16 183 0
-12 -17 181 0
-12 -18 182 0
184 185 186 0
-181 -70 184 0
-181 -71 185 0
-181 -72 186 0
-182 -70 185 0
-182 -71 186 0
-182 -72 184 0
-183 -70 186 0
-183 -71 184 0
-183 -72 185 0
187 188 189 0
-10 -19 187 0
-10 -20 188 0
-10 -21 189 0
-11 -19 188 0
-11 -20 189 0
-11 -21 187 0
-12 -19 189 0
-12 -20 187 0
-12 -21 188 0
190 191 192 0
-187 -73 190 0
-187 -74 191 0
-187 -75 192 0
-188 -73 191 0
-188 -74 192 0
-188 -75 190 0
-189 -73 192 0
-189 -74 190 0
-189 -75 191 0
193 194 195 0
-13 -16 193 0
-13 -17 194 0
-13 -18 195 0
-14 -16 194 0
-14 -17 195 0
-14 -18 193 0
-15 -16 195 0
-15 -17 193 0
-15 -18 194 0
196 197 198 0
-193 -76 196 0
-193 -77 197 0
-193 -78 198 0
-194 -76 197 0
-194 -77 198 0
-194 -78 196 0
-195 -76 198 0
-195 -77 196 0
-195 -78 197 0
199 200 201 0
-13 -19 199 0
-13 -20 200 0
-13 -21 201 0
-14 -19 200 0
-14 -20 201 0
-14 -21 199 0
-15 -19 201 0
-15 -20 199 0
-15 -21 200 0
202 203 204 0
-199 -79 202 0
-199 -80 203 0
-199 -81 204 0
-200 -79 203 0
-200 -80 204 0
-200 -81 202 0
-201 -79 204 0
-201 -80 202 0
-201 -81 203 0
205 206 207 0
-16 -19 205 0
-16 -20 206 0
-16 -21 207 0
-17 -19 206 0
-17 -20 207 0
-17 -21 205 0
-18 -19 207 0
-18 -20 205 0
-18 -21 206 0
208 209 210 0
-205 -82 208 0
-205 -83 209 0
-205 -84 210 0
-206 -82 209 0
-206 -83 210 0
-206 -84 208 0
-207 -82 210 0
-207 -83 208 0
-207 -84 209 0
211 212 213 0
-22 -25 211 0
-22 -26 212 0
-22 -27 213 0
-23 -25 212 0
-23 -26 213 0
-23 -27 211 0
-24 -25 213 0
-24 -26 211 0
-24 -27 212 0
214 215 216 0
-211 -40 214 0
-211 -41 215 0
-211 -42 216 0
-212 -40 215 0
-212 -41 216 0
-212 -42 214 0
-213 -40 216 0
-213 -41 214 0
-213 -42 215 0
217 218 219 0
-22 -28 217 0
-22 -29 218 0
-22 -30 219 0
-23 -28 218 0
-23 -29 219 0
-23 -30 217 0
-24 -28 219 0
-24 -29 217 0
-24 -30 218 0
220 221 222 0
-217 -43 220 0
-217 -44 221 0
-217 -45 222 0
-218 -43 221 0
-218 -44 222 0
-218 -45 220 0
-219 -43 222 0
-219 -44 220 0
-219 -45 221 0
223 224 225 0
-22 -31 223 0
-22 -32 224 0
-22 -33 225 0
-23 -31 224 0
-23 -32 225 0
-23 -33 223 0
-24 -31 225 0
-24 -32 223 0
-24 -33 224 0
226 227 228 0
-223 -46 226 0
-223 -47 227 0
-223 -48 228 0
-224 -46 227 0
-224 -47 228 0
-224 -48 226 0
-225 -46 228 0
-225 -47 226 0
-225 -48 227 0
229 230 231 0
-22 -34 229 0
-22 -35 230 0
-22 -36 231 0
-23 -34 230 0
-23 -35 231 0
-23 -36 229 0
-24 -34 231 0
-24 -35 229 0
-24 -36 230 0
232 233 234 0
-229 -49 232 0
-229 -50 233 0
-229 -51 234 0
-230 -49 233 0
-230 -50 234 0
-230 -51 232 0
-231 -49 234 0
-231 -50 232 0
-231 -51 233 0
235 236 237 0
-22 -37 235 0
-22 -38 236 0
-22 -39 237 0
-23 -37 236 0
-23 -38 237 0
-23 -39 235 0
-24 -37 237 0
-24 -38 235 0
-24 -39 236 0
238 239 240 0
-235 -52 238 0
-235 -53 239 0
-235 -54 240 0
-236 -52 239 0
-236 -53 240 0
-236 -54 238 0
-237 -52 240 0
-237 -53 238 0
-237 -54 239 0
241 242 243 0
-25 -28 241 0
-25 -29 242 0
-25 -30 243 0
-26 -28 242 0
-26 -29 243 0
-26 -30 241 0
-27 -28 243 0
-27 -29 241 0
-27 -30 242 0
244 245 246 0
-241 -55 244 0
-241 -56 245 0
-241 -57 246 0
-242 -55 245 0
-242 -56 246 0
-242 -57 244 0
-243 -55 246 0
-243 -56 244 0
-243 -57 245 0
247 248 249 0
-25 -31 247 0
-25 -32 248 0
-25 -33 249 0
-26 -31 248 0
-26 -32 249 0
-26 -33 247 0
-27 -31 249 0
-27 -32 247 0
-27 -33 248 0
250 251 252 0
-247 -58 250 0
-247 -59 251 0
-247 -60 252 0
-248 -58 251 0
-248 -59 252 0
-248 -60 250 0
-249 -58 252 0
-249 -59 250 0
-249 -60 251 0
253 254 255 0
-25 -34 253 0
-25 -35 254 0
-25 -36 255 0
-26 -34 254 0
-26 -35 255 0
-26 -36 253 0
-27 -34 255 0
-27 -35 253 0
-27 -36 254 0
256 257 258 0
-253 -61 256 0
-253 -62 257 0
-253 -63 258 0
-254 -61 257 0
-254 -62 258 0
-254 -63 256 0
-255 -61 258 0
-255 -62 256 0
-255 -63 257 0
259 260 261 0
-25 -37 259 0
-25 -38 260 0
-25 -39 261 0
-26 -37 260 0
-26 -38 261 0
-26 -39 259 0
-27 -37 261 0
-27 -38 259 0
-27 -39 260 0
262 263 264 0
-259 -64 262 0
-259 -65 263 0
-259 -66 264 0
-260 -64 263 0
-260 -65 264 0
-260 -66 262 0
-261 -64 264 0
-261 -65 262 0
-261 -66 263 0
265 266 267 0
-28 -31 265 0
-28 -32 266 0
-28 -33 267 0
-29 -31 266 0
-29 -32 267 0
-29 -33 265 0
-30 -31 267 0
-30 -32 265 0
-30 -33 266 0
268 269 270 0
-265 -67 268 0
-265 -68 269 0
-265 -69 270 0
-266 -67 269 0
-266 -68 270 0
-266 -69 268 0
-267 -67 270 0
-267 -68 268 0
-267 -69 269 0
271 272 273 0
-28 -34 271 0
-28 -35 272 0
-28 -36 273 0
-29 -34 272 0
-29 -35 273 0
-29 -36 271 0
-30 -34 273 0
-30 -35 271 0
-30 -36 272 0
274 275 276 0
-271 -70 274 0
-271 -71 275 0
-271 -72 276 0
-272 -70 275 0
-272 -71 276 0
-272 -72 274 0
-273 -70 276 0
-273 -71 274 0
-273 -72 275 0
277 278 279 0
-28 -37 277 0
-28 -38 278 0
-28 -39 279 0
-29 -37 278 0
-29 -38 279 0
-29 -39 277 0
-30 -37 279 0
-30 -38 277 0
-30 -39 278 0
280 281 282 0
-277 -73 280 0
-277 -74 281 0
-277 -75 282 0
-278 -73 281 0
-278 -74 282 0
-278 -75 280 0
-279 -73 282 0
-279 -74 280 0
-279 -75 281 0
283 284 285 0
-31 -34 283 0
-31 -35 284 0
-31 -36 285 0
-32 -34 284 0
-32 -35 285 0
-32 -36 283 0
-33 -34 285 0
-33 -35 283 0
-33 -36 284 0
286 287 288 0
-283 -76 286 0
-283 -77 287 0
-283 -78 288 0
-284 -76 287 0
-284 -77 288 0
-284 -78 286 0
-285 -76 288 0
-285 -77 286 0
-285 -78 287 0
289 290 291 0
-31 -37 289 0
-31 -38 290 0
-31 -39 291 0
-32 -37 290 0
-32 -38 291 0
-32 -39 289 0
-33 -37 291 0
-33 -38 289 0
-33 -39 290 0
292 293 294 0
-289 -79 292 0
-289 -80 293 0
-289 -81 294 0
-290 -79 293 0
-290 -80 294 0
-290 -81 292 0
-291 -79 294 0
-291 -80 292 0
-291 -81 293 0
295 296 297 0
-34 -37 295 0
-34 -38 296 0
-34 -39 297 0
-35 -37 296 0
-35 -38 297 0
-35 -39 295 0
-36 -37 297 0
-36 -38 295 0
-36 -39 296 0
298 299 300 0
-295 -82 298 0
-295 -83 299 0
-295 -84 300 0
-296 -82 299 0
-296 -83 300 0
-296 -84 298 0
-297 -82 300 0
-297 -83 298 0
-297 -84 299 0
301 302 303 0
-40 -43 301 0
-40 -44 302 0
-40 -45 303 0
-41 -43 302 0
-41 -44 303 0
-41 -45 301 0
-42 -43 303 0
-42 -44 301 0
-42 -45 302 0
304 305 306 0
-301 -55 304 0
-301 -56 305 0
-301 -57 306 0
-302 -55 305 0
-302 -56 306 0
-302 -57 304 0
-303 -55 306 0
-303 -56 304 0
-303 -57 305 0
307 308 309 0
-40 -46 307 0
-40 -47 308 0
-40 -48 309 0
-41 -46 308 0
-41 -47 309 0
-41 -48 307 0
-42 -46 309 0
-42 -47 307 0
-42 -48 308 0
310 311 312 0
-307 -58 310 0
-307 -59 311 0
-307 -60 312 0
-308 -58 311 0
-308 -59 312 0
-308 -60 310 0
-309 -58 312 0
-309 -59 310 0
-309 -60 311 0
313 314 315 0
-40 -49 313 0
-40 -50 314 0
-40 -51 315 0
-41 -49 314 0
-41 -50 315 0
-41 -51 313 0
-42 -49 315 0
-42 -50 313 0
-42 -51 314 0
316 317 318 0
-313 -61 316 0
-313 -62 317 0
-313 -63 318 0
-314 -61 317 0
-314 -62 318 0
-314 -63 316 0
-315 -61 318 0
-315 -62 316 0
-315 -63 317 0
319 320 321 0
-40 -52 319 0
-40 -53 320 0
-40 -54 321 0
-41 -52 320 0
-41 -53 321 0
-41 -54 319 0
-42 -52 321 0
-42 -53 319 0
-42 -54 320 0
322 323 324 0
-319 -64 322 0
-319 -65 323 0
-319 -66 324 0
-320 -64 323 0
-320 -65 324 0
-320 -66 322 0
-321 -64 324 0
-321 -65 322 0
-321 -66 323 0
325 326 327 0
-43 -46 325 0
-43 -47 326 0
-43 -48 327 0
-44 -46 326 0
-44 -47 327 0
-44 -48 325 0
-45 -46 327 0
-45 -47 325 0
-45 -48 326 0
328 329 330 0
-325 -67 328 0
-325 -68 329 0
-325 -69 330 0
-326 -67 329 0
-326 -68 330 0
-326 -69 328 0
-327 -67 330 0
-327 -68 328 0
-327 -69 329 0
331 332 333 0
-43 -49 331 0
-43 -50 332 0
-43 -51 333 0
-44 -49 332 0
-44 -50 333 0
-44 -51 331 0
-45 -49 333 0
-45 -50 331 0
-45 -51 332 0
334 335 336 0
-331 -70 334 0
-331 -71 335 0
-331 -72 336 0
-332 -70 335 0
-332 -71 336 0
-332 -72 334 0
-333 -70 336 0
-333 -71 334 0
-333 -72 335 0
337 338 339 0
-43 -52 337 0
-43 -53 338 0
-43 -54 339 0
-44 -52 338 0
-44 -53 339 0
-44 -54 337 0
-45 -52 339 0
-45 -53 337 0
-45 -54 338 0
340 341 342 0
-337 -73 340 0
-337 -74 341 0
-337 -75 342 0
-338 -73 341 0
-338 -74 342 0
-338 -75 340 0
-339 -73 342 0
-339 -74 340 0
-339 -75 341 0
343 344 345 0
-46 -49 343 0
-46 -50 344 0
-46 -51 345 0
-47 -49 344 0
-47 -50 345 0
-47 -51 343 0
-48 -49 345 0
-48 -50 343 0
-48 -51 344 0
346 347 348 0
-343 -76 346 0
-343 -77 347 0
-343 -78 348 0
-344 -76 347 0
-344 -77 348 0
-344 -78 346 0
-345 -76 348 0
-345 -77 346 0
-345 -78 347 0
349 350 351 0
-46 -52 349 0
-46 -53 350 0
-46 -54 351 0
-47 -52 350 0
-47 -53 351 0
-47 -54 349 0
-48 -52 351 0
-48 -53 349 0
-48 -54 350 0
352 353 354 0
-349 -79 352 0
-349 -80 353 0
-349 -81 354 0
-350 -79 353 0
-350 -80 354 0
-350 -81 352 0
-351 -79 354 0
-351 -80 352 0
-351 -81 353 0
355 356 357 0
-49 -52 355 0
-49 -53 356 0
-49 -54 357 0
-50 -52 356 0
-50 -53 357 0
-50 -54 355 0
-51 -52 357 0
-51 -53 355 0
-51 -54 356 0
358 359 360 0
-355 -82 358 0
-355 -83 359 0
-355 -84 360 0
-356 -82 359 0
-356 -83 360 0
-356 -84 358 0
-357 -82 360 0
-357 -83 358 0
-357 -84 359 0
361 362 363 0
-55 -58 361 0
-55 -59 362 0
-55 -60 363 0
-56 -58 362 0
-56 -59 363 0
-56 -60 361 0
-57 -58 363 0
-57 -59 361 0
-57 -60 362 0
364 365 366 0
-361 -67 364 0
-361 -68 365 0
-361 -69 366 0
-362 -67 365 0
-362 -68 366 0
-362 -69 364 0
-363 -67 366 0
-363 -68 364 0
-363 -69 365 0
367 368 369 0
-55 -61 367 0
-55 -62 368 0
-55 -63 369 0
-56 -61 368 0
-56 -62 369 0
-56 -63 367 0
-57 -61 369 0
-57 -62 367 0
-57 -63 368 0
370 371 372 0
-367 -70 370 0
-367 -71 371 0
-367 -72 372 0
-368 -70 371 0
-368 -71 372 0
-368 -72 370 0
-369 -70 372 0
-369 -71 370 0
-369 -72 371 0
373 374 375 0
-55 -64 373 0
-55 -65 374 0
-55 -66 375 0
-56 -64 374 0
-56 -65 375 0
-56 -66 373 0
-57 -64 375 0
-57 -65 373 0
-57 -66 374 0
376 377 378 0
-373 -73 376 0
-373 -74 377 0
-373 -75 378 0
-374 -73 377 0
-374 -74 378 0
-374 -75 376 0
-375 -73 378 0
-375 -74 376 0
-375 -75 377 0
379 380 381 0
-58 -61 379 0
-58 -62 380 0
-58 -63 381 0
-59 -61 380 0
-59 -62 381 0
-59 -63 379 0
-60 -61 381 0
-60 -62 379 0
-60 -63 380 0
382 383 384 0
-379 -76 382 0
-379 -77 383 0
-379 -78 384 0
-380 -76 383 0
-380 -77 384 0
-380 -78 382 0
-381 -76 384 0
-381 -77 382 0
-381 -78 383 0
385 386 387 0
-58 -64 385 0
-58 -65 386 0
-58 -66 387 0
-59 -64 386 0
-59 -65 387 0
-59 -66 385 0
-60 -64 387 0
-60 -65 385 0
-60 -66 386 0
388 389 390 0
-385 -79 388 0
-385 -80 389 0
-385 -81 390 0
-386 -79 389 0
-386 -80 390 0
-386 -81 388 0
-387 -79 390 0
-387 -80 388 0
-387 -81 389 0
391 392 393 0
-61 -64 391 0
-61 -65 392 0
-61 -66 393 0
-62 -64 392 0
-62 -65 393 0
-62 -66 391 0
-63 -64 393 0
-63 -65 391 0
-63 -66 392 0
394 395 396 0
-391 -82 394 0
-391 -83 395 0
-391 -84 396 0
-392 -82 395 0
-392 -83 396 0
-392 -84 394 0
-393 -82 396 0
-393 -83 394 0
-393 -84 395 0
397 398 399 0
-67 -70 397 0
-67 -71 398 0
-67 -72 399 0
-68 -70 398 0
-68 -71 399 0
-68 -72 397 0
-69 -70 399 0
-69 -71 397 0
-69 -72 398 0
400 401 402 0
-397 -76 400 0
-397 -77 401 0
-397 -78 402 0
-398 -76 401 0
-398 -77 402 0
-398 -78 400 0
-399 -76 402 0
-399 -77 400 0
-399 -78 401 0
403 404 405 0
-67 -73 403 0
-67 -74 404 0
-67 -75 405 0
-68 -73 404 0
-68 -74 405 0
-68 -75 403 0
-69 -73 405 0
-69 -74 403 0
-69 -75 404 0
406 407 408 0
-403 -79 406 0
-403 -80 407 0
-403 -81 408 0
-404 -79 407 0
-404 -80 408 0
-404 -81 406 0
-405 -79 408 0
-405 -80 406 0
-405 -81 407 0
409 410 411 0
-70 -73 409 0
-70 -74 410 0
-70 -75 411 0
-71 -73 410 0
-71 -74 411 0
-71 -75 409 0
-72 -73 411 0
-72 -74 409 0
-72 -75 410 0
412 413 414 0
-409 -82 412 0
-409 -83 413 0
-409 -84 414 0
-410 -82 413 0
-410 -83 414 0
-410 -84 412 0
-411 -82 414 0
-411 -83 412 0
-411 -84 413 0
415 416 417 0
-76 -79 415 0
-76 -80 416 0
-76 -81 417 0
-77 -79 416 0
-77 -80 417 0
-77 -81 415 0
-78 -79 417 0
-78 -80 415 0
-78 -81 416 0
418 419 420 0
-415 -82 418 0
-415 -83 419 0
-415 -84 420 0
-416 -82 419 0
-416 -83 420 0
-416 -84 418 0
-417 -82 420 0
-417 -83 418 0
-417 -84 419 0
-88 -364 0
-89 -366 0
-90 -365 0
-88 -370 0
-89 -372 0
-90 -371 0
-88 -376 0
-89 -378 0
-90 -377 0
-88 -382 0
-89 -384 0
-90 -383 0
-88 -388 0
-89 -390 0
-90 -389 0
-88 -394 0
-89 -396 0
-90 -395 0
-88 -400 0
-89 -402 0
-90 -401 0
-88 -406 0
-89 -408 0
-90 -407 0
-88 -412 0
-89 -414 0
-90 -413 0
-88 -418 0
-89 -420 0
-90 -419 0
-94 -328 0
-95 -330 0
-96 -329 0
-94 -334 0
-95 -336 0
-96 -335 0
-94 -340 0
-95 -342 0
-96 -341 0
-94 -346 0
-95 -348 0
-96 -347 0
-94 -352 0
-95 -354 0
-96 -353 0
-94 -358 0
-95 -360 0
-96 -359 0
-94 -400 0
-95 -402 0
-96 -401 0
-94 -406 0
-95 -408 0
-96 -407 0
-94 -412 0
-95 -414 0
-96 -413 0
-94 -418 0
-95 -420 0
-96 -419 0
-100 -310 0
-101 -312 0
-102 -311 0
-100 -316 0
-101 -318 0
-102 -317 0
-100 -322 0
-101 -324 0
-102 -323 0
-100 -346 0
-101 -348 0
-102 -347 0
-100 -352 0
-101 -354 0
-102 -353 0
-100 -358 0
-101 -360 0
-102 -359 0
-100 -382 0
-101 -384 0
-102 -383 0
-100 -388 0
-101 -390 0
-102 -389 0
-100 -394 0
-101 -396 0
-102 -395 0
-100 -418 0
-101 -420 0
-102 -419 0
-106 -304 0
-107 -306 0
-108 -305 0
-106 -316 0
-107 -318 0
-108 -317 0
-106 -322 0
-107 -324 0
-108 -323 0
-106 -334 0
-107 -336 0
-108 -335 0
-106 -340 0
-107 -342 0
-108 -341 0
-106 -358 0
-107 -360 0
-108 -359 0
-106 -370 0
-107 -372 0
-108 -371 0
-106 -376 0
-107 -378 0
-108 -377 0
-106 -394 0
-107 -396 0
-108 -395 0
-106 -412 0
-107 -414 0
-108 -413 0
-112 -304 0
-113 -306 0
-114 -305 0
-112 -310 0
-113 -312 0
-114 -311 0
-112 -322 0
-113 -324 0
-114 -323 0
-112 -328 0
-113 -330 0
-114 -329 0
-112 -340 0
-113 -342 0
-114 -341 0
-112 -352 0
-113 -354 0
-114 -353 0
-112 -364 0
-113 -366 0
-114 -365 0
-112 -376 0
-113 -378 0
-114 -377 0
-112 -388 0
-113 -390 0
-114 -389 0
-112 -406 0
-113 -408 0
-114 -407 0
-118 -304 0
-119 -306 0
-120 -305 0
-118 -310 0
-119 -312 0
-120 -311 0
-118 -316 0
-119 -318 0
-120 -317 0
-118 -328 0
-119 -330 0
-120 -329 0
-118 -334 0
-119 -336 0
-120 -335 0
-118 -346 0
-119 -348 0
-120 -347 0
-118 -364 0
-119 -366 0
-120 -365 0
-118 -370 0
-119 -372 0
-120 -371 0
-118 -382 0
-119 -384 0
-120 -383 0
-118 -400 0
-119 -402 0
-120 -401 0
-124 -268 0
-125 -270 0
-126 -269 0
-124 -274 0
-125 -276 0
-126 -275 0
-124 -280 0
-125 -282 0
-126 -281 0
-124 -286 0
-125 -288 0
-126 -287 0
-124 -292 0
-125 -294 0
-126 -293 0
-124 -298 0
-125 -300 0
-126 -299 0
-124 -400 0
-125 -402 0
-126 -401 0
-124 -406 0
-125 -408 0
-126 -407 0
-124 -412 0
-125 -414 0
-126 -413 0
-124 -418 0
-125 -420 0
-126 -419 0
-130 -250 0
-131 -252 0
-132 -251 0
-130 -256 0
-131 -258 0
-132 -257 0
-130 -262 0
-131 -264 0
-132 -263 0
-130 -286 0
-131 -288 0
-132 -287 0
-130 -292 0
-131 -294 0
-132 -293 0
-130 -298 0
-131 -300 0
-132 -299 0
-130 -382 0
-131 -384 0
-132 -383 0
-130 -388 0
-131 -390 0
-132 -389 0
-130 -394 0
-131 -396 0
-132 -395 0
-130 -418 0
-131 -420 0
-132 -419 0
-136 -244 0
-137 -246 0
-138 -245 0
-136 -256 0
-137 -258 0
-138 -257 0
-136 -262 0
-137 -264 0
-138 -263 0
-136 -274 0
-137 -276 0
-138 -275 0
-136 -280 0
-137 -282 0
-138 -281 0
-136 -298 0
-137 -300 0
-138 -299 0
-136 -370 0
-137 -372 0
-138 -371 0
-136 -376 0
-137 -378 0
-138 -377 0
-136 -394 0
-137 -396 0
-138 -395 0
-136 -412 0
-137 -414 0
-138 -413 0
-142 -244 0
-143 -246 0
-144 -245 0
-142 -250 0
-143 -252 0
-144 -251 0
-142 -262 0
-143 -264 0
-144 -263 0
-142 -268 0
-143 -270 0
-144 -269 0
-142 -280 0
-143 -282 0
-144 -281 0
-142 -292 0
-143 -294 0
-144 -293 0
-142 -364 0
-143 -366 0
-144 -365 0
-142 -376 0
-143 -378 0
-144 -377 0
-142 -388 0
-143 -390 0
-144 -389 0
-142 -406 0
-143 -408 0
-144 -407 0
-148 -244 0
-149 -246 0
-150 -245 0
-148 -250 0
-149 -252 0
-150 -251 0
-148 -256 0
-149 -258 0
-150 -257 0
-148 -268 0
-149 -270 0
-150 -269 0
-148 -274 0
-149 -276 0
-150 -275 0
-148 -286 0
-149 -288 0
-150 -287 0
-148 -364 0
-149 -366 0
-150 -365 0
-148 -370 0
-149 -372 0
-150 -371 0
-148 -382 0
-149 -384 0
-150 -383 0
-148 -400 0
-149 -402 0
-150 -401 0
-154 -226 0
-155 -228 0
-156 -227 0
-154 -232 0
-155 -234 0
-156 -233 0
-154 -238 0
-155 -240 0
-156 -239 0
-154 -286 0
-155 -288 0
-156 -287 0
-154 -292 0
-155 -294 0
-156 -293 0
-154 -298 0
-155 -300 0
-156 -299 0
-154 -346 0
-155 -348 0
-156 -347 0
-154 -352 0
-155 -354 0
-156 -353 0
-154 -358 0
-155 -360 0
-156 -359 0
-154 -418 0
-155 -420 0
-156 -419 0
-160 -220 0
-161 -222 0
-162 -221 0
-160 -232 0
-161 -234 0
-162 -233 0
-160 -238 0
-161 -240 0
-162 -239 0
-160 -274 0
-161 -276 0
-162 -275 0
-160 -280 0
-161 -282 0
-162 -281 0
-160 -298 0
-161 -300 0
-162 -299 0
-160 -334 0
-161 -336 0
-162 -335 0
-160 -340 0
-161 -342 0
-162 -341 0
-160 -358 0
-161 -360 0
-162 -359 0
-160 -412 0
-161 -414 0
-162 -413 0
-166 -220 0
-167 -222 0
-168 -221 0
-166 -226 0
-167 -228 0
-168 -227 0
-166 -238 0
-167 -240 0
-168 -239 0
-166 -268 0
-167 -270 0
-168 -269 0
-166 -280 0
-167 -282 0
-168 -281 0
-166 -292 0
-167 -294 0
-168 -293 0
-166 -328 0
-167 -330 0
-168 -329 0
-166 -340 0
-167 -342 0
-168 -341 0
-166 -352 0
-167 -354 0
-168 -353 0
-166 -406 0
-167 -408 0
-168 -407 0
-172 -220 0
-173 -222 0
-174 -221 0
-172 -226 0
-173 -228 0
-174 -227 0
-172 -232 0
-173 -234 0
-174 -233 0
-172 -268 0
-173 -270 0
-174 -269 0
-172 -274 0
-173 -276 0
-174 -275 0
-172 -286 0
-173 -288 0
-174 -287 0
-172 -328 0
-173 -330 0
-174 -329 0
-172 -334 0
-173 -336 0
-174 -335 0
-172 -346 0
-173 -348 0
-174 -347 0
-172 -400 0
-173 -402 0
-174 -401 0
-178 -214 0
-179 -216 0
-180 -215 0
-178 -232 0
-179 -234 0
-180 -233 0
-178 -238 0
-179 -240 0
-180 -239 0
-178 -256 0
-179 -258 0
-180 -257 0
-178 -262 0
-179 -264 0
-180 -263 0
-178 -298 0
-179 -300 0
-180 -299 0
-178 -316 0
-179 -318 0
-180 -317 0
-178 -322 0
-179 -324 0
-180 -323 0
-178 -358 0
-179 -360 0
-180 -359 0
-178 -394 0
-179 -396 0
-180 -395 0
-184 -214 0
-185 -216 0
-186 -215 0
-184 -226 0
-185 -228 0
-186 -227 0
-184 -238 0
-185 -240 0
-186 -239 0
-184 -250 0
-185 -252 0
-186 -251 0
-184 -262 0
-185 -264 0
-186 -263 0
-184 -292 0
-185 -294 0
-186 -293 0
-184 -310 0
-185 -312 0
-186 -311 0
-184 -322 0
-185 -324 0
-186 -323 0
-184 -352 0
-185 -354 0
-186 -353 0
-184 -388 0
-185 -390 0
-186 -389 0
-190 -214 0
-191 -216 0
-192 -215 0
-190 -226 0
-191 -228 0
-192 -227 0
-190 -232 0
-191 -234 0
-192 -233 0
-190 -250 0
-191 -252 0
-192 -251 0
-190 -256 0
-191 -258 0
-192 -257 0
-190 -286 0
-191 -288 0
-192 -287 0
-190 -310 0
-191 -312 0
-192 -311 0
-190 -316 0
-191 -318 0
-192 -317 0
-190 -346 0
-191 -348 0
-192 -347 0
-190 -382 0
-191 -384 0
-192 -383 0
-196 -214 0
-197 -216 0
-198 -215 0
-196 -220 0
-197 -222 0
-198 -221 0
-196 -238 0
-197 -240 0
-198 -239 0
-196 -244 0
-197 -246 0
-198 -245 0
-196 -262 0
-197 -264 0
-198 -263 0
-196 -280 0
-197 -282 0
-198 -281 0
-196 -304 0
-197 -306 0
-198 -305 0
-196 -322 0
-197 -324 0
-198 -323 0
-196 -340 0
-197 -342 0
-198 -341 0
-196 -376 0
-197 -378 0
-198 -377 0
-202 -214 0
-203 -216 0
-204 -215 0
-202 -220 0
-203 -222 0
-204 -221 0
-202 -232 0
-203 -234 0
-204 -233 0
-202 -244 0
-203 -246 0
-204 -245 0
-202 -256 0
-203 -258 0
-204 -257 0
-202 -274 0
-203 -276 0
-204 -275 0
-202 -304 0
-203 -306 0
-204 -305 0
-202 -316 0
-203 -318 0
-204 -317 0
-202 -334 0
-203 -336 0
-204 -335 0
-202 -370 0
-203 -372 0
-204 -371 0
-208 -214 0
-209 -216 0
-210 -215 0
-208 -220 0
-209 -222 0
-210 -221 0
-208 -226 0
-209 -228 0
-210 -227 0
-208 -244 0
-209 -246 0
-210 -245 0
-208 -250 0
-209 -252 0
-210 -251 0
-208 -268 0
-209 -270 0
-210 -269 0
-208 -304 0
-209 -306 0
-210 -305 0
-208 -310 0
-209 -312 0
-210 -311 0
-208 -328 0
-209 -330 0
-210 -329 0
-208 -364 0
-209 -366 0
-210 -365 0
-214 -400 0
-215 -402 0
-216 -401 0
-214 -406 0
-215 -408 0
-216 -407 0
-214 -412 0
-215 -414 0
-216 -413 0
-214 -418 0
-215 -420 0
-216 -419 0
-220 -382 0
-221 -384 0
-222 -383 0
-220 -388 0
-221 -390 0
-222 -389 0
-220 -394 0
-221 -396 0
-222 -395 0
-220 -418 0
-221 -420 0
-222 -419 0
-226 -370 0
-227 -372 0
-228 -371 0
-226 -376 0
-227 -378 0
-228 -377 0
-226 -394 0
-227 -396 0
-228 -395 0
-226 -412 0
-227 -414 0
-228 -413 0
-232 -364 0
-233 -366 0
-234 -365 0
-232 -376 0
-233 -378 0
-234 -377 0
-232 -388 0
-233 -390 0
-234 -389 0
-232 -406 0
-233 -408 0
-234 -407 0
-238 -364 0
-239 -366 0
-240 -365 0
-238 -370 0
-239 -372 0
-240 -371 0
-238 -382 0
-239 -384 0
-240 -383 0
-238 -400 0
-239 -402 0
-240 -401 0
-244 -346 0
-245 -348 0
-246 -347 0
-244 -352 0
-245 -354 0
-246 -353 0
-244 -358 0
-245 -360 0
-246 -359 0
-244 -418 0
-245 -420 0
-246 -419 0
-250 -334 0
-251 -336 0
-252 -335 0
-250 -340 0
-251 -342 0
-252 -341 0
-250 -358 0
-251 -360 0
-252 -359 0
-250 -412 0
-251 -414 0
-252 -413 0
-256 -328 0
-257 -330 0
-258 -329 0
-256 -340 0
-257 -342 0
-258 -341 0
-256 -352 0
-257 -354 0
-258 -353 0
-256 -406 0
-257 -408 0
-258 -407 0
-262 -328 0
-263 -330 0
-264 -329 0
-262 -334 0
-263 -336 0
-264 -335 0
-262 -346 0
-263 -348 0
-264 -347 0
-262 -400 0
-263 -402 0
-264 -401 0
-268 -316 0
-269 -318 0
-270 -317 0
-268 -322 0
-269 -324 0
-270 -323 0
-268 -358 0
-269 -360 0
-270 -359 0
-268 -394 0
-269 -396 0
-270 -395 0
-274 -310 0
-275 -312 0
-276 -311 0
-274 -322 0
-275 -324 0
-276 -323 0
-274 -352 0
-275 -354 0
-276 -353 0
-274 -388 0
-275 -390 0
-276 -389 0
-280 -310 0
-281 -312 0
-282 -311 0
-280 -316 0
-281 -318 0
-282 -317 0
-280 -346 0
-281 -348 0
-282 -347 0
-280 -382 0
-281 -384 0
-282 -383 0
-286 -304 0
-287 -306 0
-288 -305 0
-286 -322 0
-287 -324 0
-288 -323 0
-286 -340 0
-287 -342 0
-288 -341 0
-286 -376 0
-287 -378 0
-288 -377 0
-292 -304 0
-293 -306 0
-294 -305 0
-292 -316 0
-293 -318 0
-294 -317 0
-292 -334 0
-293 -336 0
-294 -335 0
-292 -370 0
-293 -372 0
-294 -371 0
-298 -304 0
-299 -306 0
-300 -305 0
-298 -310 0
-299 -312 0
-300 -311 0
-298 -328 0
-299 -330 0
-300 -329 0
-298 -364 0
-299 -366 0
-300 -365 0
-304 -418 0
-305 -420 0
-306 -419 0
-310 -412 0
-311 -414 0
-312 -413 0
-316 -406 0
-317 -408 0
-318 -407 0
-322 -400 0
-323 -402 0
-324 -401 0
-328 -394 0
-329 -396 0
-330 -395 0
-334 -388 0
-335 -390 0
-336 -389 0
-340 -382 0
-341 -384 0
-342 -383 0
-346 -376 0
-347 -378 0
-348 -377 0
-352 -370 0
-353 -372 0
-354 -371 0
-358 -364 0
-359 -366 0
-360 -365 0
