c Phi(K_9, 2K_4), reduction=gauge
c copies: 315
c UNSAT is equivalent to R(2K_4, Z_3) <= 9
p cnf 1998 7397
1 2 3 0
-1 -2 0
-1 -3 0
-2 -3 0
4 5 6 0
-4 -5 0
-4 -6 0
-5 -6 0
7 8 9 0
-7 -8 0
-7 -9 0
-8 -9 0
10 11 12 0
-10 -11 0
-10 -12 0
-11 -12 0
13 14 15 0
-13 -14 0
-13 -15 0
-14 -15 0
16 17 18 0
-16 -17 0
-16 -18 0
-17 -18 0
19 20 21 0
-19 -20 0
-19 -21 0
-20 -21 0
22 23 24 0
-22 -23 0
-22 -24 0
-23 -24 0
25 26 27 0
-25 -26 0
-25 -27 0
-26 -27 0
28 29 30 0
-28 -29 0
-28 -30 0
-29 -30 0
31 32 33 0
-31 -32 0
-31 -33 0
-32 -33 0
34 35 36 0
-34 -35 0
-34 -36 0
-35 -36 0
37 38 39 0
-37 -38 0
-37 -39 0
-38 -39 0
40 41 42 0
-40 -41 0
-40 -42 0
-41 -42 0
43 44 45 0
-43 -44 0
-43 -45 0
-44 -45 0
46 47 48 0
-46 -47 0
-46 -48 0
-47 -48 0
49 50 51 0
-49 -50 0
-49 -51 0
-50 -51 0
52 53 54 0
-52 -53 0
-52 -54 0
-53 -54 0
55 56 57 0
-55 -56 0
-55 -57 0
-56 -57 0
58 59 60 0
-58 -59 0
-58 -60 0
-59 -60 0
61 62 63 0
-61 -62 0
-61 -63 0
-62 -63 0
64 65 66 0
-64 -65 0
-64 -66 0
-65 -66 0
67 68 69 0
-67 -68 0
-67 -69 0
-68 -69 0
70 71 72 0
-70 -71 0
-70 -72 0
-71 -72 0
73 74 75 0
-73 -74 0
-73 -75 0
-74 -75 0
76 77 78 0
-76 -77 0
-76 -78 0
-77 -78 0
79 80 81 0
-79 -80 0
-79 -81 0
-80 -81 0
82 83 84 0
-82 -83 0
-82 -84 0
-83 -84 0
85 86 87 0
-85 -86 0
-85 -87 0
-86 -87 0
88 89 90 0
-88 -89 0
-88 -90 0
-89 -90 0
91 92 93 0
-91 -92 0
-91 -93 0
-92 -93 0
94 95 96 0
-94 -95 0
-94 -96 0
-95 -96 0
97 98 99 0
-97 -98 0
-97 -99 0
-98 -99 0
100 101 102 0
-100 -101 0
-100 -102 0
-101 -102 0
103 104 105 0
-103 -104 0
-103 -105 0
-104 -105 0
106 107 108 0
-106 -107 0
-106 -108 0
-107 -108 0
109 110 111 0
-1 -4 109 0
-1 -5 110 0
-1 -6 111 0
-2 -4 110 0
-2 -5 111 0
-2 -6 109 0
-3 -4 111 0
-3 -5 109 0
-3 -6 110 0
112 113 114 0
-109 -7 112 0
-109 -8 113 0
-109 -9 114 0
-110 -7 113 0
-110 -8 114 0
-110 -9 112 0
-111 -7 114 0
-111 -8 112 0
-111 -9 113 0
115 116 117 0
-112 -25 115 0
-112 -26 116 0
-112 -27 117 0
-113 -25 116 0
-113 -26 117 0
-113 -27 115 0
-114 -25 117 0
-114 -26 115 0
-114 -27 116 0
118 119 120 0
-115 -28 118 0
-115 -29 119 0
-115 -30 120 0
-116 -28 119 0
-116 -29 120 0
-116 -30 118 0
-117 -28 120 0
-117 -29 118 0
-117 -30 119 0
121 122 123 0
-118 -46 121 0
-118 -47 122 0
-118 -48 123 0
-119 -46 122 0
-119 -47 123 0
-119 -48 121 0
-120 -46 123 0
-120 -47 121 0
-120 -48 122 0
124 125 126 0
-1 -4 124 0
-1 -5 125 0
-1 -6 126 0
-2 -4 125 0
-2 -5 126 0
-2 -6 124 0
-3 -4 126 0
-3 -5 124 0
-3 -6 125 0
127 128 129 0
-124 -10 127 0
-124 -11 128 0
-124 -12 129 0
-125 -10 128 0
-125 -11 129 0
-125 -12 127 0
-126 -10 129 0
-126 -11 127 0
-126 -12 128 0
130 131 132 0
-127 -25 130 0
-127 -26 131 0
-127 -27 132 0
-128 -25 131 0
-128 -26 132 0
-128 -27 130 0
-129 -25 132 0
-129 -26 130 0
-129 -27 131 0
133 134 135 0
-130 -31 133 0
-130 -32 134 0
-130 -33 135 0
-131 -31 134 0
-131 -32 135 0
-131 -33 133 0
-132 -31 135 0
-132 -32 133 0
-132 -33 134 0
136 137 138 0
-133 -49 136 0
-133 -50 137 0
-133 -51 138 0
-134 -49 137 0
-134 -50 138 0
-134 -51 136 0
-135 -49 138 0
-135 -50 136 0
-135 -51 137 0
139 140 141 0
-1 -4 139 0
-1 -5 140 0
-1 -6 141 0
-2 -4 140 0
-2 -5 141 0
-2 -6 139 0
-3 -4 141 0
-3 -5 139 0
-3 -6 140 0
142 143 144 0
-139 -13 142 0
-139 -14 143 0
-139 -15 144 0
-140 -13 143 0
-140 -14 144 0
-140 -15 142 0
-141 -13 144 0
-141 -14 142 0
-141 -15 143 0
145 146 147 0
-142 -25 145 0
-142 -26 146 0
-142 -27 147 0
-143 -25 146 0
-143 -26 147 0
-143 -27 145 0
-144 -25 147 0
-144 -26 145 0
-144 -27 146 0
148 149 150 0
-145 -34 148 0
-145 -35 149 0
-145 -36 150 0
-146 -34 149 0
-146 -35 150 0
-146 -36 148 0
-147 -34 150 0
-147 -35 148 0
-147 -36 149 0
151 152 153 0
-148 -52 151 0
-148 -53 152 0
-148 -54 153 0
-149 -52 152 0
-149 -53 153 0
-149 -54 151 0
-150 -52 153 0
-150 -53 151 0
-150 -54 152 0
154 155 156 0
-1 -4 154 0
-1 -5 155 0
-1 -6 156 0
-2 -4 155 0
-2 -5 156 0
-2 -6 154 0
-3 -4 156 0
-3 -5 154 0
-3 -6 155 0
157 158 159 0
-154 -16 157 0
-154 -17 158 0
-154 -18 159 0
-155 -16 158 0
-155 -17 159 0
-155 -18 157 0
-156 -16 159 0
-156 -17 157 0
-156 -18 158 0
160 161 162 0
-157 -25 160 0
-157 -26 161 0
-157 -27 162 0
-158 -25 161 0
-158 -26 162 0
-158 -27 160 0
-159 -25 162 0
-159 -26 160 0
-159 -27 161 0
163 164 165 0
-160 -37 163 0
-160 -38 164 0
-160 -39 165 0
-161 -37 164 0
-161 -38 165 0
-161 -39 163 0
-162 -37 165 0
-162 -38 163 0
-162 -39 164 0
166 167 168 0
-163 -55 166 0
-163 -56 167 0
-163 -57 168 0
-164 -55 167 0
-164 -56 168 0
-164 -57 166 0
-165 -55 168 0
-165 -56 166 0
-165 -57 167 0
169 170 171 0
-1 -4 169 0
-1 -5 170 0
-1 -6 171 0
-2 -4 170 0
-2 -5 171 0
-2 -6 169 0
-3 -4 171 0
-3 -5 169 0
-3 -6 170 0
172 173 174 0
-169 -19 172 0
-169 -20 173 0
-169 -21 174 0
-170 -19 173 0
-170 -20 174 0
-170 -21 172 0
-171 -19 174 0
-171 -20 172 0
-171 -21 173 0
175 176 177 0
-172 -25 175 0
-172 -26 176 0
-172 -27 177 0
-173 -25 176 0
-173 -26 177 0
-173 -27 175 0
-174 -25 177 0
-174 -26 175 0
-174 -27 176 0
178 179 180 0
-175 -40 178 0
-175 -41 179 0
-175 -42 180 0
-176 -40 179 0
-176 -41 180 0
-176 -42 178 0
-177 -40 180 0
-177 -41 178 0
-177 -42 179 0
181 182 183 0
-178 -58 181 0
-178 -59 182 0
-178 -60 183 0
-179 -58 182 0
-179 -59 183 0
-179 -60 181 0
-180 -58 183 0
-180 -59 181 0
-180 -60 182 0
184 185 186 0
-1 -4 184 0
-1 -5 185 0
-1 -6 186 0
-2 -4 185 0
-2 -5 186 0
-2 -6 184 0
-3 -4 186 0
-3 -5 184 0
-3 -6 185 0
187 188 189 0
-184 -22 187 0
-184 -23 188 0
-184 -24 189 0
-185 -22 188 0
-185 -23 189 0
-185 -24 187 0
-186 -22 189 0
-186 -23 187 0
-186 -24 188 0
190 191 192 0
-187 -25 190 0
-187 -26 191 0
-187 -27 192 0
-188 -25 191 0
-188 -26 192 0
-188 -27 190 0
-189 -25 192 0
-189 -26 190 0
-189 -27 191 0
193 194 195 0
-190 -43 193 0
-190 -44 194 0
-190 -45 195 0
-191 -43 194 0
-191 -44 195 0
-191 -45 193 0
-192 -43 195 0
-192 -44 193 0
-192 -45 194 0
196 197 198 0
-193 -61 196 0
-193 -62 197 0
-193 -63 198 0
-194 -61 197 0
-194 -62 198 0
-194 -63 196 0
-195 -61 198 0
-195 -62 196 0
-195 -63 197 0
199 200 201 0
-1 -7 199 0
-1 -8 200 0
-1 -9 201 0
-2 -7 200 0
-2 -8 201 0
-2 -9 199 0
-3 -7 201 0
-3 -8 199 0
-3 -9 200 0
202 203 204 0
-199 -10 202 0
-199 -11 203 0
-199 -12 204 0
-200 -10 203 0
-200 -11 204 0
-200 -12 202 0
-201 -10 204 0
-201 -11 202 0
-201 -12 203 0
205 206 207 0
-202 -28 205 0
-202 -29 206 0
-202 -30 207 0
-203 -28 206 0
-203 -29 207 0
-203 -30 205 0
-204 -28 207 0
-204 -29 205 0
-204 -30 206 0
208 209 210 0
-205 -31 208 0
-205 -32 209 0
-205 -33 210 0
-206 -31 209 0
-206 -32 210 0
-206 -33 208 0
-207 -31 210 0
-207 -32 208 0
-207 -33 209 0
211 212 213 0
-208 -64 211 0
-208 -65 212 0
-208 -66 213 0
-209 -64 212 0
-209 -65 213 0
-209 -66 211 0
-210 -64 213 0
-210 -65 211 0
-210 -66 212 0
214 215 216 0
-1 -7 214 0
-1 -8 215 0
-1 -9 216 0
-2 -7 215 0
-2 -8 216 0
-2 -9 214 0
-3 -7 216 0
-3 -8 214 0
-3 -9 215 0
217 218 219 0
-214 -13 217 0
-214 -14 218 0
-214 -15 219 0
-215 -13 218 0
-215 -14 219 0
-215 -15 217 0
-216 -13 219 0
-216 -14 217 0
-216 -15 218 0
220 221 222 0
-217 -28 220 0
-217 -29 221 0
-217 -30 222 0
-218 -28 221 0
-218 -29 222 0
-218 -30 220 0
-219 -28 222 0
-219 -29 220 0
-219 -30 221 0
223 224 225 0
-220 -34 223 0
-220 -35 224 0
-220 -36 225 0
-221 -34 224 0
-221 -35 225 0
-221 -36 223 0
-222 -34 225 0
-222 -35 223 0
-222 -36 224 0
226 227 228 0
-223 -67 226 0
-223 -68 227 0
-223 -69 228 0
-224 -67 227 0
-224 -68 228 0
-224 -69 226 0
-225 -67 228 0
-225 -68 226 0
-225 -69 227 0
229 230 231 0
-1 -7 229 0
-1 -8 230 0
-1 -9 231 0
-2 -7 230 0
-2 -8 231 0
-2 -9 229 0
-3 -7 231 0
-3 -8 229 0
-3 -9 230 0
232 233 234 0
-229 -16 232 0
-229 -17 233 0
-229 -18 234 0
-230 -16 233 0
-230 -17 234 0
-230 -18 232 0
-231 -16 234 0
-231 -17 232 0
-231 -18 233 0
235 236 237 0
-232 -28 235 0
-232 -29 236 0
-232 -30 237 0
-233 -28 236 0
-233 -29 237 0
-233 -30 235 0
-234 -28 237 0
-234 -29 235 0
-234 -30 236 0
238 239 240 0
-235 -37 238 0
-235 -38 239 0
-235 -39 240 0
-236 -37 239 0
-236 -38 240 0
-236 -39 238 0
-237 -37 240 0
-237 -38 238 0
-237 -39 239 0
241 242 243 0
-238 -70 241 0
-238 -71 242 0
-238 -72 243 0
-239 -70 242 0
-239 -71 243 0
-239 -72 241 0
-240 -70 243 0
-240 -71 241 0
-240 -72 242 0
244 245 246 0
-1 -7 244 0
-1 -8 245 0
-1 -9 246 0
-2 -7 245 0
-2 -8 246 0
-2 -9 244 0
-3 -7 246 0
-3 -8 244 0
-3 -9 245 0
247 248 249 0
-244 -19 247 0
-244 -20 248 0
-244 -21 249 0
-245 -19 248 0
-245 -20 249 0
-245 -21 247 0
-246 -19 249 0
-246 -20 247 0
-246 -21 248 0
250 251 252 0
-247 -28 250 0
-247 -29 251 0
-247 -30 252 0
-248 -28 251 0
-248 -29 252 0
-248 -30 250 0
-249 -28 252 0
-249 -29 250 0
-249 -30 251 0
253 254 255 0
-250 -40 253 0
-250 -41 254 0
-250 -42 255 0
-251 -40 254 0
-251 -41 255 0
-251 -42 253 0
-252 -40 255 0
-252 -41 253 0
-252 -42 254 0
256 257 258 0
-253 -73 256 0
-253 -74 257 0
-253 -75 258 0
-254 -73 257 0
-254 -74 258 0
-254 -75 256 0
-255 -73 258 0
-255 -74 256 0
-255 -75 257 0
259 260 261 0
-1 -7 259 0
-1 -8 260 0
-1 -9 261 0
-2 -7 260 0
-2 -8 261 0
-2 -9 259 0
-3 -7 261 0
-3 -8 259 0
-3 -9 260 0
262 263 264 0
-259 -22 262 0
-259 -23 263 0
-259 -24 264 0
-260 -22 263 0
-260 -23 264 0
-260 -24 262 0
-261 -22 264 0
-261 -23 262 0
-261 -24 263 0
265 266 267 0
-262 -28 265 0
-262 -29 266 0
-262 -30 267 0
-263 -28 266 0
-263 -29 267 0
-263 -30 265 0
-264 -28 267 0
-264 -29 265 0
-264 -30 266 0
268 269 270 0
-265 -43 268 0
-265 -44 269 0
-265 -45 270 0
-266 -43 269 0
-266 -44 270 0
-266 -45 268 0
-267 -43 270 0
-267 -44 268 0
-267 -45 269 0
271 272 273 0
-268 -76 271 0
-268 -77 272 0
-268 -78 273 0
-269 -76 272 0
-269 -77 273 0
-269 -78 271 0
-270 -76 273 0
-270 -77 271 0
-270 -78 272 0
274 275 276 0
-1 -10 274 0
-1 -11 275 0
-1 -12 276 0
-2 -10 275 0
-2 -11 276 0
-2 -12 274 0
-3 -10 276 0
-3 -11 274 0
-3 -12 275 0
277 278 279 0
-274 -13 277 0
-274 -14 278 0
-274 -15 279 0
-275 -13 278 0
-275 -14 279 0
-275 -15 277 0
-276 -13 279 0
-276 -14 277 0
-276 -15 278 0
280 281 282 0
-277 -31 280 0
-277 -32 281 0
-277 -33 282 0
-278 -31 281 0
-278 -32 282 0
-278 -33 280 0
-279 -31 282 0
-279 -32 280 0
-279 -33 281 0
283 284 285 0
-280 -34 283 0
-280 -35 284 0
-280 -36 285 0
-281 -34 284 0
-281 -35 285 0
-281 -36 283 0
-282 -34 285 0
-282 -35 283 0
-282 -36 284 0
286 287 288 0
-283 -79 286 0
-283 -80 287 0
-283 -81 288 0
-284 -79 287 0
-284 -80 288 0
-284 -81 286 0
-285 -79 288 0
-285 -80 286 0
-285 -81 287 0
289 290 291 0
-1 -10 289 0
-1 -11 290 0
-1 -12 291 0
-2 -10 290 0
-2 -11 291 0
-2 -12 289 0
-3 -10 291 0
-3 -11 289 0
-3 -12 290 0
292 293 294 0
-289 -16 292 0
-289 -17 293 0
-289 -18 294 0
-290 -16 293 0
-290 -17 294 0
-290 -18 292 0
-291 -16 294 0
-291 -17 292 0
-291 -18 293 0
295 296 297 0
-292 -31 295 0
-292 -32 296 0
-292 -33 297 0
-293 -31 296 0
-293 -32 297 0
-293 -33 295 0
-294 -31 297 0
-294 -32 295 0
-294 -33 296 0
298 299 300 0
-295 -37 298 0
-295 -38 299 0
-295 -39 300 0
-296 -37 299 0
-296 -38 300 0
-296 -39 298 0
-297 -37 300 0
-297 -38 298 0
-297 -39 299 0
301 302 303 0
-298 -82 301 0
-298 -83 302 0
-298 -84 303 0
-299 -82 302 0
-299 -83 303 0
-299 -84 301 0
-300 -82 303 0
-300 -83 301 0
-300 -84 302 0
304 305 306 0
-1 -10 304 0
-1 -11 305 0
-1 -12 306 0
-2 -10 305 0
-2 -11 306 0
-2 -12 304 0
-3 -10 306 0
-3 -11 304 0
-3 -12 305 0
307 308 309 0
-304 -19 307 0
-304 -20 308 0
-304 -21 309 0
-305 -19 308 0
-305 -20 309 0
-305 -21 307 0
-306 -19 309 0
-306 -20 307 0
-306 -21 308 0
310 311 312 0
-307 -31 310 0
-307 -32 311 0
-307 -33 312 0
-308 -31 311 0
-308 -32 312 0
-308 -33 310 0
-309 -31 312 0
-309 -32 310 0
-309 -33 311 0
313 314 315 0
-310 -40 313 0
-310 -41 314 0
-310 -42 315 0
-311 -40 314 0
-311 -41 315 0
-311 -42 313 0
-312 -40 315 0
-312 -41 313 0
-312 -42 314 0
316 317 318 0
-313 -85 316 0
-313 -86 317 0
-313 -87 318 0
-314 -85 317 0
-314 -86 318 0
-314 -87 316 0
-315 -85 318 0
-315 -86 316 0
-315 -87 317 0
319 320 321 0
-1 -10 319 0
-1 -11 320 0
-1 -12 321 0
-2 -10 320 0
-2 -11 321 0
-2 -12 319 0
-3 -10 321 0
-3 -11 319 0
-3 -12 320 0
322 323 324 0
-319 -22 322 0
-319 -23 323 0
-319 -24 324 0
-320 -22 323 0
-320 -23 324 0
-320 -24 322 0
-321 -22 324 0
-321 -23 322 0
-321 -24 323 0
325 326 327 0
-322 -31 325 0
-322 -32 326 0
-322 -33 327 0
-323 -31 326 0
-323 -32 327 0
-323 -33 325 0
-324 -31 327 0
-324 -32 325 0
-324 -33 326 0
328 329 330 0
-325 -43 328 0
-325 -44 329 0
-325 -45 330 0
-326 -43 329 0
-326 -44 330 0
-326 -45 328 0
-327 -43 330 0
-327 -44 328 0
-327 -45 329 0
331 332 333 0
-328 -88 331 0
-328 -89 332 0
-328 -90 333 0
-329 -88 332 0
-329 -89 333 0
-329 -90 331 0
-330 -88 333 0
-330 -89 331 0
-330 -90 332 0
334 335 336 0
-1 -13 334 0
-1 -14 335 0
-1 -15 336 0
-2 -13 335 0
-2 -14 336 0
-2 -15 334 0
-3 -13 336 0
-3 -14 334 0
-3 -15 335 0
337 338 339 0
-334 -16 337 0
-334 -17 338 0
-334 -18 339 0
-335 -16 338 0
-335 -17 339 0
-335 -18 337 0
-336 -16 339 0
-336 -17 337 0
-336 -18 338 0
340 341 342 0
-337 -34 340 0
-337 -35 341 0
-337 -36 342 0
-338 -34 341 0
-338 -35 342 0
-338 -36 340 0
-339 -34 342 0
-339 -35 340 0
-339 -36 341 0
343 344 345 0
-340 -37 343 0
-340 -38 344 0
-340 -39 345 0
-341 -37 344 0
-341 -38 345 0
-341 -39 343 0
-342 -37 345 0
-342 -38 343 0
-342 -39 344 0
346 347 348 0
-343 -91 346 0
-343 -92 347 0
-343 -93 348 0
-344 -91 347 0
-344 -92 348 0
-344 -93 346 0
-345 -91 348 0
-345 -92 346 0
-345 -93 347 0
349 350 351 0
-1 -13 349 0
-1 -14 350 0
-1 -15 351 0
-2 -13 350 0
-2 -14 351 0
-2 -15 349 0
-3 -13 351 0
-3 -14 349 0
-3 -15 350 0
352 353 354 0
-349 -19 352 0
-349 -20 353 0
-349 -21 354 0
-350 -19 353 0
-350 -20 354 0
-350 -21 352 0
-351 -19 354 0
-351 -20 352 0
-351 -21 353 0
355 356 357 0
-352 -34 355 0
-352 -35 356 0
-352 -36 357 0
-353 -34 356 0
-353 -35 357 0
-353 -36 355 0
-354 -34 357 0
-354 -35 355 0
-354 -36 356 0
358 359 360 0
-355 -40 358 0
-355 -41 359 0
-355 -42 360 0
-356 -40 359 0
-356 -41 360 0
-356 -42 358 0
-357 -40 360 0
-357 -41 358 0
-357 -42 359 0
361 362 363 0
-358 -94 361 0
-358 -95 362 0
-358 -96 363 0
-359 -94 362 0
-359 -95 363 0
-359 -96 361 0
-360 -94 363 0
-360 -95 361 0
-360 -96 362 0
364 365 366 0
-1 -13 364 0
-1 -14 365 0
-1 -15 366 0
-2 -13 365 0
-2 -14 366 0
-2 -15 364 0
-3 -13 366 0
-3 -14 364 0
-3 -15 365 0
367 368 369 0
-364 -22 367 0
-364 -23 368 0
-364 -24 369 0
-365 -22 368 0
-365 -23 369 0
-365 -24 367 0
-366 -22 369 0
-366 -23 367 0
-366 -24 368 0
370 371 372 0
-367 -34 370 0
-367 -35 371 0
-367 -36 372 0
-368 -34 371 0
-368 -35 372 0
-368 -36 370 0
-369 -34 372 0
-369 -35 370 0
-369 -36 371 0
373 374 375 0
-370 -43 373 0
-370 -44 374 0
-370 -45 375 0
-371 -43 374 0
-371 -44 375 0
-371 -45 373 0
-372 -43 375 0
-372 -44 373 0
-372 -45 374 0
376 377 378 0
-373 -97 376 0
-373 -98 377 0
-373 -99 378 0
-374 -97 377 0
-374 -98 378 0
-374 -99 376 0
-375 -97 378 0
-375 -98 376 0
-375 -99 377 0
379 380 381 0
-1 -16 379 0
-1 -17 380 0
-1 -18 381 0
-2 -16 380 0
-2 -17 381 0
-2 -18 379 0
-3 -16 381 0
-3 -17 379 0
-3 -18 380 0
382 383 384 0
-379 -19 382 0
-379 -20 383 0
-379 -21 384 0
-380 -19 383 0
-380 -20 384 0
-380 -21 382 0
-381 -19 384 0
-381 -20 382 0
-381 -21 383 0
385 386 387 0
-382 -37 385 0
-382 -38 386 0
-382 -39 387 0
-383 -37 386 0
-383 -38 387 0
-383 -39 385 0
-384 -37 387 0
-384 -38 385 0
-384 -39 386 0
388 389 390 0
-385 -40 388 0
-385 -41 389 0
-385 -42 390 0
-386 -40 389 0
-386 -41 390 0
-386 -42 388 0
-387 -40 390 0
-387 -41 388 0
-387 -42 389 0
391 392 393 0
-388 -100 391 0
-388 -101 392 0
-388 -102 393 0
-389 -100 392 0
-389 -101 393 0
-389 -102 391 0
-390 -100 393 0
-390 -101 391 0
-390 -102 392 0
394 395 396 0
-1 -16 394 0
-1 -17 395 0
-1 -18 396 0
-2 -16 395 0
-2 -17 396 0
-2 -18 394 0
-3 -16 396 0
-3 -17 394 0
-3 -18 395 0
397 398 399 0
-394 -22 397 0
-394 -23 398 0
-394 -24 399 0
-395 -22 398 0
-395 -23 399 0
-395 -24 397 0
-396 -22 399 0
-396 -23 397 0
-396 -24 398 0
400 401 402 0
-397 -37 400 0
-397 -38 401 0
-397 -39 402 0
-398 -37 401 0
-398 -38 402 0
-398 -39 400 0
-399 -37 402 0
-399 -38 400 0
-399 -39 401 0
403 404 405 0
-400 -43 403 0
-400 -44 404 0
-400 -45 405 0
-401 -43 404 0
-401 -44 405 0
-401 -45 403 0
-402 -43 405 0
-402 -44 403 0
-402 -45 404 0
406 407 408 0
-403 -103 406 0
-403 -104 407 0
-403 -105 408 0
-404 -103 407 0
-404 -104 408 0
-404 -105 406 0
-405 -103 408 0
-405 -104 406 0
-405 -105 407 0
409 410 411 0
-1 -19 409 0
-1 -20 410 0
-1 -21 411 0
-2 -19 410 0
-2 -20 411 0
-2 -21 409 0
-3 -19 411 0
-3 -20 409 0
-3 -21 410 0
412 413 414 0
-409 -22 412 0
-409 -23 413 0
-409 -24 414 0
-410 -22 413 0
-410 -23 414 0
-410 -24 412 0
-411 -22 414 0
-411 -23 412 0
-411 -24 413 0
415 416 417 0
-412 -40 415 0
-412 -41 416 0
-412 -42 417 0
-413 -40 416 0
-413 -41 417 0
-413 -42 415 0
-414 -40 417 0
-414 -41 415 0
-414 -42 416 0
418 419 420 0
-415 -43 418 0
-415 -44 419 0
-415 -45 420 0
-416 -43 419 0
-416 -44 420 0
-416 -45 418 0
-417 -43 420 0
-417 -44 418 0
-417 -45 419 0
421 422 423 0
-418 -106 421 0
-418 -107 422 0
-418 -108 423 0
-419 -106 422 0
-419 -107 423 0
-419 -108 421 0
-420 -106 423 0
-420 -107 421 0
-420 -108 422 0
424 425 426 0
-4 -7 424 0
-4 -8 425 0
-4 -9 426 0
-5 -7 425 0
-5 -8 426 0
-5 -9 424 0
-6 -7 426 0
-6 -8 424 0
-6 -9 425 0
427 428 429 0
-424 -10 427 0
-424 -11 428 0
-424 -12 429 0
-425 -10 428 0
-425 -11 429 0
-425 -12 427 0
-426 -10 429 0
-426 -11 427 0
-426 -12 428 0
430 431 432 0
-427 -46 430 0
-427 -47 431 0
-427 -48 432 0
-428 -46 431 0
-428 -47 432 0
-428 -48 430 0
-429 -46 432 0
-429 -47 430 0
-429 -48 431 0
433 434 435 0
-430 -49 433 0
-430 -50 434 0
-430 -51 435 0
-431 -49 434 0
-431 -50 435 0
-431 -51 433 0
-432 -49 435 0
-432 -50 433 0
-432 -51 434 0
436 437 438 0
-433 -64 436 0
-433 -65 437 0
-433 -66 438 0
-434 -64 437 0
-434 -65 438 0
-434 -66 436 0
-435 -64 438 0
-435 -65 436 0
-435 -66 437 0
439 440 441 0
-4 -7 439 0
-4 -8 440 0
-4 -9 441 0
-5 -7 440 0
-5 -8 441 0
-5 -9 439 0
-6 -7 441 0
-6 -8 439 0
-6 -9 440 0
442 443 444 0
-439 -13 442 0
-439 -14 443 0
-439 -15 444 0
-440 -13 443 0
-440 -14 444 0
-440 -15 442 0
-441 -13 444 0
-441 -14 442 0
-441 -15 443 0
445 446 447 0
-442 -46 445 0
-442 -47 446 0
-442 -48 447 0
-443 -46 446 0
-443 -47 447 0
-443 -48 445 0
-444 -46 447 0
-444 -47 445 0
-444 -48 446 0
448 449 450 0
-445 -52 448 0
-445 -53 449 0
-445 -54 450 0
-446 -52 449 0
-446 -53 450 0
-446 -54 448 0
-447 -52 450 0
-447 -53 448 0
-447 -54 449 0
451 452 453 0
-448 -67 451 0
-448 -68 452 0
-448 -69 453 0
-449 -67 452 0
-449 -68 453 0
-449 -69 451 0
-450 -67 453 0
-450 -68 451 0
-450 -69 452 0
454 455 456 0
-4 -7 454 0
-4 -8 455 0
-4 -9 456 0
-5 -7 455 0
-5 -8 456 0
-5 -9 454 0
-6 -7 456 0
-6 -8 454 0
-6 -9 455 0
457 458 459 0
-454 -16 457 0
-454 -17 458 0
-454 -18 459 0
-455 -16 458 0
-455 -17 459 0
-455 -18 457 0
-456 -16 459 0
-456 -17 457 0
-456 -18 458 0
460 461 462 0
-457 -46 460 0
-457 -47 461 0
-457 -48 462 0
-458 -46 461 0
-458 -47 462 0
-458 -48 460 0
-459 -46 462 0
-459 -47 460 0
-459 -48 461 0
463 464 465 0
-460 -55 463 0
-460 -56 464 0
-460 -57 465 0
-461 -55 464 0
-461 -56 465 0
-461 -57 463 0
-462 -55 465 0
-462 -56 463 0
-462 -57 464 0
466 467 468 0
-463 -70 466 0
-463 -71 467 0
-463 -72 468 0
-464 -70 467 0
-464 -71 468 0
-464 -72 466 0
-465 -70 468 0
-465 -71 466 0
-465 -72 467 0
469 470 471 0
-4 -7 469 0
-4 -8 470 0
-4 -9 471 0
-5 -7 470 0
-5 -8 471 0
-5 -9 469 0
-6 -7 471 0
-6 -8 469 0
-6 -9 470 0
472 473 474 0
-469 -19 472 0
-469 -20 473 0
-469 -21 474 0
-470 -19 473 0
-470 -20 474 0
-470 -21 472 0
-471 -19 474 0
-471 -20 472 0
-471 -21 473 0
475 476 477 0
-472 -46 475 0
-472 -47 476 0
-472 -48 477 0
-473 -46 476 0
-473 -47 477 0
-473 -48 475 0
-474 -46 477 0
-474 -47 475 0
-474 -48 476 0
478 479 480 0
-475 -58 478 0
-475 -59 479 0
-475 -60 480 0
-476 -58 479 0
-476 -59 480 0
-476 -60 478 0
-477 -58 480 0
-477 -59 478 0
-477 -60 479 0
481 482 483 0
-478 -73 481 0
-478 -74 482 0
-478 -75 483 0
-479 -73 482 0
-479 -74 483 0
-479 -75 481 0
-480 -73 483 0
-480 -74 481 0
-480 -75 482 0
484 485 486 0
-4 -7 484 0
-4 -8 485 0
-4 -9 486 0
-5 -7 485 0
-5 -8 486 0
-5 -9 484 0
-6 -7 486 0
-6 -8 484 0
-6 -9 485 0
487 488 489 0
-484 -22 487 0
-484 -23 488 0
-484 -24 489 0
-485 -22 488 0
-485 -23 489 0
-485 -24 487 0
-486 -22 489 0
-486 -23 487 0
-486 -24 488 0
490 491 492 0
-487 -46 490 0
-487 -47 491 0
-487 -48 492 0
-488 -46 491 0
-488 -47 492 0
-488 -48 490 0
-489 -46 492 0
-489 -47 490 0
-489 -48 491 0
493 494 495 0
-490 -61 493 0
-490 -62 494 0
-490 -63 495 0
-491 -61 494 0
-491 -62 495 0
-491 -63 493 0
-492 -61 495 0
-492 -62 493 0
-492 -63 494 0
496 497 498 0
-493 -76 496 0
-493 -77 497 0
-493 -78 498 0
-494 -76 497 0
-494 -77 498 0
-494 -78 496 0
-495 -76 498 0
-495 -77 496 0
-495 -78 497 0
499 500 501 0
-4 -10 499 0
-4 -11 500 0
-4 -12 501 0
-5 -10 500 0
-5 -11 501 0
-5 -12 499 0
-6 -10 501 0
-6 -11 499 0
-6 -12 500 0
502 503 504 0
-499 -13 502 0
-499 -14 503 0
-499 -15 504 0
-500 -13 503 0
-500 -14 504 0
-500 -15 502 0
-501 -13 504 0
-501 -14 502 0
-501 -15 503 0
505 506 507 0
-502 -49 505 0
-502 -50 506 0
-502 -51 507 0
-503 -49 506 0
-503 -50 507 0
-503 -51 505 0
-504 -49 507 0
-504 -50 505 0
-504 -51 506 0
508 509 510 0
-505 -52 508 0
-505 -53 509 0
-505 -54 510 0
-506 -52 509 0
-506 -53 510 0
-506 -54 508 0
-507 -52 510 0
-507 -53 508 0
-507 -54 509 0
511 512 513 0
-508 -79 511 0
-508 -80 512 0
-508 -81 513 0
-509 -79 512 0
-509 -80 513 0
-509 -81 511 0
-510 -79 513 0
-510 -80 511 0
-510 -81 512 0
514 515 516 0
-4 -10 514 0
-4 -11 515 0
-4 -12 516 0
-5 -10 515 0
-5 -11 516 0
-5 -12 514 0
-6 -10 516 0
-6 -11 514 0
-6 -12 515 0
517 518 519 0
-514 -16 517 0
-514 -17 518 0
-514 -18 519 0
-515 -16 518 0
-515 -17 519 0
-515 -18 517 0
-516 -16 519 0
-516 -17 517 0
-516 -18 518 0
520 521 522 0
-517 -49 520 0
-517 -50 521 0
-517 -51 522 0
-518 -49 521 0
-518 -50 522 0
-518 -51 520 0
-519 -49 522 0
-519 -50 520 0
-519 -51 521 0
523 524 525 0
-520 -55 523 0
-520 -56 524 0
-520 -57 525 0
-521 -55 524 0
-521 -56 525 0
-521 -57 523 0
-522 -55 525 0
-522 -56 523 0
-522 -57 524 0
526 527 528 0
-523 -82 526 0
-523 -83 527 0
-523 -84 528 0
-524 -82 527 0
-524 -83 528 0
-524 -84 526 0
-525 -82 528 0
-525 -83 526 0
-525 -84 527 0
529 530 531 0
-4 -10 529 0
-4 -11 530 0
-4 -12 531 0
-5 -10 530 0
-5 -11 531 0
-5 -12 529 0
-6 -10 531 0
-6 -11 529 0
-6 -12 530 0
532 533 534 0
-529 -19 532 0
-529 -20 533 0
-529 -21 534 0
-530 -19 533 0
-530 -20 534 0
-530 -21 532 0
-531 -19 534 0
-531 -20 532 0
-531 -21 533 0
535 536 537 0
-532 -49 535 0
-532 -50 536 0
-532 -51 537 0
-533 -49 536 0
-533 -50 537 0
-533 -51 535 0
-534 -49 537 0
-534 -50 535 0
-534 -51 536 0
538 539 540 0
-535 -58 538 0
-535 -59 539 0
-535 -60 540 0
-536 -58 539 0
-536 -59 540 0
-536 -60 538 0
-537 -58 540 0
-537 -59 538 0
-537 -60 539 0
541 542 543 0
-538 -85 541 0
-538 -86 542 0
-538 -87 543 0
-539 -85 542 0
-539 -86 543 0
-539 -87 541 0
-540 -85 543 0
-540 -86 541 0
-540 -87 542 0
544 545 546 0
-4 -10 544 0
-4 -11 545 0
-4 -12 546 0
-5 -10 545 0
-5 -11 546 0
-5 -12 544 0
-6 -10 546 0
-6 -11 544 0
-6 -12 545 0
547 548 549 0
-544 -22 547 0
-544 -23 548 0
-544 -24 549 0
-545 -22 548 0
-545 -23 549 0
-545 -24 547 0
-546 -22 549 0
-546 -23 547 0
-546 -24 548 0
550 551 552 0
-547 -49 550 0
-547 -50 551 0
-547 -51 552 0
-548 -49 551 0
-548 -50 552 0
-548 -51 550 0
-549 -49 552 0
-549 -50 550 0
-549 -51 551 0
553 554 555 0
-550 -61 553 0
-550 -62 554 0
-550 -63 555 0
-551 -61 554 0
-551 -62 555 0
-551 -63 553 0
-552 -61 555 0
-552 -62 553 0
-552 -63 554 0
556 557 558 0
-553 -88 556 0
-553 -89 557 0
-553 -90 558 0
-554 -88 557 0
-554 -89 558 0
-554 -90 556 0
-555 -88 558 0
-555 -89 556 0
-555 -90 557 0
559 560 561 0
-4 -13 559 0
-4 -14 560 0
-4 -15 561 0
-5 -13 560 0
-5 -14 561 0
-5 -15 559 0
-6 -13 561 0
-6 -14 559 0
-6 -15 560 0
562 563 564 0
-559 -16 562 0
-559 -17 563 0
-559 -18 564 0
-560 -16 563 0
-560 -17 564 0
-560 -18 562 0
-561 -16 564 0
-561 -17 562 0
-561 -18 563 0
565 566 567 0
-562 -52 565 0
-562 -53 566 0
-562 -54 567 0
-563 -52 566 0
-563 -53 567 0
-563 -54 565 0
-564 -52 567 0
-564 -53 565 0
-564 -54 566 0
568 569 570 0
-565 -55 568 0
-565 -56 569 0
-565 -57 570 0
-566 -55 569 0
-566 -56 570 0
-566 -57 568 0
-567 -55 570 0
-567 -56 568 0
-567 -57 569 0
571 572 573 0
-568 -91 571 0
-568 -92 572 0
-568 -93 573 0
-569 -91 572 0
-569 -92 573 0
-569 -93 571 0
-570 -91 573 0
-570 -92 571 0
-570 -93 572 0
574 575 576 0
-4 -13 574 0
-4 -14 575 0
-4 -15 576 0
-5 -13 575 0
-5 -14 576 0
-5 -15 574 0
-6 -13 576 0
-6 -14 574 0
-6 -15 575 0
577 578 579 0
-574 -19 577 0
-574 -20 578 0
-574 -21 579 0
-575 -19 578 0
-575 -20 579 0
-575 -21 577 0
-576 -19 579 0
-576 -20 577 0
-576 -21 578 0
580 581 582 0
-577 -52 580 0
-577 -53 581 0
-577 -54 582 0
-578 -52 581 0
-578 -53 582 0
-578 -54 580 0
-579 -52 582 0
-579 -53 580 0
-579 -54 581 0
583 584 585 0
-580 -58 583 0
-580 -59 584 0
-580 -60 585 0
-581 -58 584 0
-581 -59 585 0
-581 -60 583 0
-582 -58 585 0
-582 -59 583 0
-582 -60 584 0
586 587 588 0
-583 -94 586 0
-583 -95 587 0
-583 -96 588 0
-584 -94 587 0
-584 -95 588 0
-584 -96 586 0
-585 -94 588 0
-585 -95 586 0
-585 -96 587 0
589 590 591 0
-4 -13 589 0
-4 -14 590 0
-4 -15 591 0
-5 -13 590 0
-5 -14 591 0
-5 -15 589 0
-6 -13 591 0
-6 -14 589 0
-6 -15 590 0
592 593 594 0
-589 -22 592 0
-589 -23 593 0
-589 -24 594 0
-590 -22 593 0
-590 -23 594 0
-590 -24 592 0
-591 -22 594 0
-591 -23 592 0
-591 -24 593 0
595 596 597 0
-592 -52 595 0
-592 -53 596 0
-592 -54 597 0
-593 -52 596 0
-593 -53 597 0
-593 -54 595 0
-594 -52 597 0
-594 -53 595 0
-594 -54 596 0
598 599 600 0
-595 -61 598 0
-595 -62 599 0
-595 -63 600 0
-596 -61 599 0
-596 -62 600 0
-596 -63 598 0
-597 -61 600 0
-597 -62 598 0
-597 -63 599 0
601 602 603 0
-598 -97 601 0
-598 -98 602 0
-598 -99 603 0
-599 -97 602 0
-599 -98 603 0
-599 -99 601 0
-600 -97 603 0
-600 -98 601 0
-600 -99 602 0
604 605 606 0
-4 -16 604 0
-4 -17 605 0
-4 -18 606 0
-5 -16 605 0
-5 -17 606 0
-5 -18 604 0
-6 -16 606 0
-6 -17 604 0
-6 -18 605 0
607 608 609 0
-604 -19 607 0
-604 -20 608 0
-604 -21 609 0
-605 -19 608 0
-605 -20 609 0
-605 -21 607 0
-606 -19 609 0
-606 -20 607 0
-606 -21 608 0
610 611 612 0
-607 -55 610 0
-607 -56 611 0
-607 -57 612 0
-608 -55 611 0
-608 -56 612 0
-608 -57 610 0
-609 -55 612 0
-609 -56 610 0
-609 -57 611 0
613 614 615 0
-610 -58 613 0
-610 -59 614 0
-610 -60 615 0
-611 -58 614 0
-611 -59 615 0
-611 -60 613 0
-612 -58 615 0
-612 -59 613 0
-612 -60 614 0
616 617 618 0
-613 -100 616 0
-613 -101 617 0
-613 -102 618 0
-614 -100 617 0
-614 -101 618 0
-614 -102 616 0
-615 -100 618 0
-615 -101 616 0
-615 -102 617 0
619 620 621 0
-4 -16 619 0
-4 -17 620 0
-4 -18 621 0
-5 -16 620 0
-5 -17 621 0
-5 -18 619 0
-6 -16 621 0
-6 -17 619 0
-6 -18 620 0
622 623 624 0
-619 -22 622 0
-619 -23 623 0
-619 -24 624 0
-620 -22 623 0
-620 -23 624 0
-620 -24 622 0
-621 -22 624 0
-621 -23 622 0
-621 -24 623 0
625 626 627 0
-622 -55 625 0
-622 -56 626 0
-622 -57 627 0
-623 -55 626 0
-623 -56 627 0
-623 -57 625 0
-624 -55 627 0
-624 -56 625 0
-624 -57 626 0
628 629 630 0
-625 -61 628 0
-625 -62 629 0
-625 -63 630 0
-626 -61 629 0
-626 -62 630 0
-626 -63 628 0
-627 -61 630 0
-627 -62 628 0
-627 -63 629 0
631 632 633 0
-628 -103 631 0
-628 -104 632 0
-628 -105 633 0
-629 -103 632 0
-629 -104 633 0
-629 -105 631 0
-630 -103 633 0
-630 -104 631 0
-630 -105 632 0
634 635 636 0
-4 -19 634 0
-4 -20 635 0
-4 -21 636 0
-5 -19 635 0
-5 -20 636 0
-5 -21 634 0
-6 -19 636 0
-6 -20 634 0
-6 -21 635 0
637 638 639 0
-634 -22 637 0
-634 -23 638 0
-634 -24 639 0
-635 -22 638 0
-635 -23 639 0
-635 -24 637 0
-636 -22 639 0
-636 -23 637 0
-636 -24 638 0
640 641 642 0
-637 -58 640 0
-637 -59 641 0
-637 -60 642 0
-638 -58 641 0
-638 -59 642 0
-638 -60 640 0
-639 -58 642 0
-639 -59 640 0
-639 -60 641 0
643 644 645 0
-640 -61 643 0
-640 -62 644 0
-640 -63 645 0
-641 -61 644 0
-641 -62 645 0
-641 -63 643 0
-642 -61 645 0
-642 -62 643 0
-642 -63 644 0
646 647 648 0
-643 -106 646 0
-643 -107 647 0
-643 -108 648 0
-644 -106 647 0
-644 -107 648 0
-644 -108 646 0
-645 -106 648 0
-645 -107 646 0
-645 -108 647 0
649 650 651 0
-7 -10 649 0
-7 -11 650 0
-7 -12 651 0
-8 -10 650 0
-8 -11 651 0
-8 -12 649 0
-9 -10 651 0
-9 -11 649 0
-9 -12 650 0
652 653 654 0
-649 -13 652 0
-649 -14 653 0
-649 -15 654 0
-650 -13 653 0
-650 -14 654 0
-650 -15 652 0
-651 -13 654 0
-651 -14 652 0
-651 -15 653 0
655 656 657 0
-652 -64 655 0
-652 -65 656 0
-652 -66 657 0
-653 -64 656 0
-653 -65 657 0
-653 -66 655 0
-654 -64 657 0
-654 -65 655 0
-654 -66 656 0
658 659 660 0
-655 -67 658 0
-655 -68 659 0
-655 -69 660 0
-656 -67 659 0
-656 -68 660 0
-656 -69 658 0
-657 -67 660 0
-657 -68 658 0
-657 -69 659 0
661 662 663 0
-658 -79 661 0
-658 -80 662 0
-658 -81 663 0
-659 -79 662 0
-659 -80 663 0
-659 -81 661 0
-660 -79 663 0
-660 -80 661 0
-660 -81 662 0
664 665 666 0
-7 -10 664 0
-7 -11 665 0
-7 -12 666 0
-8 -10 665 0
-8 -11 666 0
-8 -12 664 0
-9 -10 666 0
-9 -11 664 0
-9 -12 665 0
667 668 669 0
-664 -16 667 0
-664 -17 668 0
-664 -18 669 0
-665 -16 668 0
-665 -17 669 0
-665 -18 667 0
-666 -16 669 0
-666 -17 667 0
-666 -18 668 0
670 671 672 0
-667 -64 670 0
-667 -65 671 0
-667 -66 672 0
-668 -64 671 0
-668 -65 672 0
-668 -66 670 0
-669 -64 672 0
-669 -65 670 0
-669 -66 671 0
673 674 675 0
-670 -70 673 0
-670 -71 674 0
-670 -72 675 0
-671 -70 674 0
-671 -71 675 0
-671 -72 673 0
-672 -70 675 0
-672 -71 673 0
-672 -72 674 0
676 677 678 0
-673 -82 676 0
-673 -83 677 0
-673 -84 678 0
-674 -82 677 0
-674 -83 678 0
-674 -84 676 0
-675 -82 678 0
-675 -83 676 0
-675 -84 677 0
679 680 681 0
-7 -10 679 0
-7 -11 680 0
-7 -12 681 0
-8 -10 680 0
-8 -11 681 0
-8 -12 679 0
-9 -10 681 0
-9 -11 679 0
-9 -12 680 0
682 683 684 0
-679 -19 682 0
-679 -20 683 0
-679 -21 684 0
-680 -19 683 0
-680 -20 684 0
-680 -21 682 0
-681 -19 684 0
-681 -20 682 0
-681 -21 683 0
685 686 687 0
-682 -64 685 0
-682 -65 686 0
-682 -66 687 0
-683 -64 686 0
-683 -65 687 0
-683 -66 685 0
-684 -64 687 0
-684 -65 685 0
-684 -66 686 0
688 689 690 0
-685 -73 688 0
-685 -74 689 0
-685 -75 690 0
-686 -73 689 0
-686 -74 690 0
-686 -75 688 0
-687 -73 690 0
-687 -74 688 0
-687 -75 689 0
691 692 693 0
-688 -85 691 0
-688 -86 692 0
-688 -87 693 0
-689 -85 692 0
-689 -86 693 0
-689 -87 691 0
-690 -85 693 0
-690 -86 691 0
-690 -87 692 0
694 695 696 0
-7 -10 694 0
-7 -11 695 0
-7 -12 696 0
-8 -10 695 0
-8 -11 696 0
-8 -12 694 0
-9 -10 696 0
-9 -11 694 0
-9 -12 695 0
697 698 699 0
-694 -22 697 0
-694 -23 698 0
-694 -24 699 0
-695 -22 698 0
-695 -23 699 0
-695 -24 697 0
-696 -22 699 0
-696 -23 697 0
-696 -24 698 0
700 701 702 0
-697 -64 700 0
-697 -65 701 0
-697 -66 702 0
-698 -64 701 0
-698 -65 702 0
-698 -66 700 0
-699 -64 702 0
-699 -65 700 0
-699 -66 701 0
703 704 705 0
-700 -76 703 0
-700 -77 704 0
-700 -78 705 0
-701 -76 704 0
-701 -77 705 0
-701 -78 703 0
-702 -76 705 0
-702 -77 703 0
-702 -78 704 0
706 707 708 0
-703 -88 706 0
-703 -89 707 0
-703 -90 708 0
-704 -88 707 0
-704 -89 708 0
-704 -90 706 0
-705 -88 708 0
-705 -89 706 0
-705 -90 707 0
709 710 711 0
-7 -13 709 0
-7 -14 710 0
-7 -15 711 0
-8 -13 710 0
-8 -14 711 0
-8 -15 709 0
-9 -13 711 0
-9 -14 709 0
-9 -15 710 0
712 713 714 0
-709 -16 712 0
-709 -17 713 0
-709 -18 714 0
-710 -16 713 0
-710 -17 714 0
-710 -18 712 0
-711 -16 714 0
-711 -17 712 0
-711 -18 713 0
715 716 717 0
-712 -67 715 0
-712 -68 716 0
-712 -69 717 0
-713 -67 716 0
-713 -68 717 0
-713 -69 715 0
-714 -67 717 0
-714 -68 715 0
-714 -69 716 0
718 719 720 0
-715 -70 718 0
-715 -71 719 0
-715 -72 720 0
-716 -70 719 0
-716 -71 720 0
-716 -72 718 0
-717 -70 720 0
-717 -71 718 0
-717 -72 719 0
721 722 723 0
-718 -91 721 0
-718 -92 722 0
-718 -93 723 0
-719 -91 722 0
-719 -92 723 0
-719 -93 721 0
-720 -91 723 0
-720 -92 721 0
-720 -93 722 0
724 725 726 0
-7 -13 724 0
-7 -14 725 0
-7 -15 726 0
-8 -13 725 0
-8 -14 726 0
-8 -15 724 0
-9 -13 726 0
-9 -14 724 0
-9 -15 725 0
727 728 729 0
-724 -19 727 0
-724 -20 728 0
-724 -21 729 0
-725 -19 728 0
-725 -20 729 0
-725 -21 727 0
-726 -19 729 0
-726 -20 727 0
-726 -21 728 0
730 731 732 0
-727 -67 730 0
-727 -68 731 0
-727 -69 732 0
-728 -67 731 0
-728 -68 732 0
-728 -69 730 0
-729 -67 732 0
-729 -68 730 0
-729 -69 731 0
733 734 735 0
-730 -73 733 0
-730 -74 734 0
-730 -75 735 0
-731 -73 734 0
-731 -74 735 0
-731 -75 733 0
-732 -73 735 0
-732 -74 733 0
-732 -75 734 0
736 737 738 0
-733 -94 736 0
-733 -95 737 0
-733 -96 738 0
-734 -94 737 0
-734 -95 738 0
-734 -96 736 0
-735 -94 738 0
-735 -95 736 0
-735 -96 737 0
739 740 741 0
-7 -13 739 0
-7 -14 740 0
-7 -15 741 0
-8 -13 740 0
-8 -14 741 0
-8 -15 739 0
-9 -13 741 0
-9 -14 739 0
-9 -15 740 0
742 743 744 0
-739 -22 742 0
-739 -23 743 0
-739 -24 744 0
-740 -22 743 0
-740 -23 744 0
-740 -24 742 0
-741 -22 744 0
-741 -23 742 0
-741 -24 743 0
745 746 747 0
-742 -67 745 0
-742 -68 746 0
-742 -69 747 0
-743 -67 746 0
-743 -68 747 0
-743 -69 745 0
-744 -67 747 0
-744 -68 745 0
-744 -69 746 0
748 749 750 0
-745 -76 748 0
-745 -77 749 0
-745 -78 750 0
-746 -76 749 0
-746 -77 750 0
-746 -78 748 0
-747 -76 750 0
-747 -77 748 0
-747 -78 749 0
751 752 753 0
-748 -97 751 0
-748 -98 752 0
-748 -99 753 0
-749 -97 752 0
-749 -98 753 0
-749 -99 751 0
-750 -97 753 0
-750 -98 751 0
-750 -99 752 0
754 755 756 0
-7 -16 754 0
-7 -17 755 0
-7 -18 756 0
-8 -16 755 0
-8 -17 756 0
-8 -18 754 0
-9 -16 756 0
-9 -17 754 0
-9 -18 755 0
757 758 759 0
-754 -19 757 0
-754 -20 758 0
-754 -21 759 0
-755 -19 758 0
-755 -20 759 0
-755 -21 757 0
-756 -19 759 0
-756 -20 757 0
-756 -21 758 0
760 761 762 0
-757 -70 760 0
-757 -71 761 0
-757 -72 762 0
-758 -70 761 0
-758 -71 762 0
-758 -72 760 0
-759 -70 762 0
-759 -71 760 0
-759 -72 761 0
763 764 765 0
-760 -73 763 0
-760 -74 764 0
-760 -75 765 0
-761 -73 764 0
-761 -74 765 0
-761 -75 763 0
-762 -73 765 0
-762 -74 763 0
-762 -75 764 0
766 767 768 0
-763 -100 766 0
-763 -101 767 0
-763 -102 768 0
-764 -100 767 0
-764 -101 768 0
-764 -102 766 0
-765 -100 768 0
-765 -101 766 0
-765 -102 767 0
769 770 771 0
-7 -16 769 0
-7 -17 770 0
-7 -18 771 0
-8 -16 770 0
-8 -17 771 0
-8 -18 769 0
-9 -16 771 0
-9 -17 769 0
-9 -18 770 0
772 773 774 0
-769 -22 772 0
-769 -23 773 0
-769 -24 774 0
-770 -22 773 0
-770 -23 774 0
-770 -24 772 0
-771 -22 774 0
-771 -23 772 0
-771 -24 773 0
775 776 777 0
-772 -70 775 0
-772 -71 776 0
-772 -72 777 0
-773 -70 776 0
-773 -71 777 0
-773 -72 775 0
-774 -70 777 0
-774 -71 775 0
-774 -72 776 0
778 779 780 0
-775 -76 778 0
-775 -77 779 0
-775 -78 780 0
-776 -76 779 0
-776 -77 780 0
-776 -78 778 0
-777 -76 780 0
-777 -77 778 0
-777 -78 779 0
781 782 783 0
-778 -103 781 0
-778 -104 782 0
-778 -105 783 0
-779 -103 782 0
-779 -104 783 0
-779 -105 781 0
-780 -103 783 0
-780 -104 781 0
-780 -105 782 0
784 785 786 0
-7 -19 784 0
-7 -20 785 0
-7 -21 786 0
-8 -19 785 0
-8 -20 786 0
-8 -21 784 0
-9 -19 786 0
-9 -20 784 0
-9 -21 785 0
787 788 789 0
-784 -22 787 0
-784 -23 788 0
-784 -24 789 0
-785 -22 788 0
-785 -23 789 0
-785 -24 787 0
-786 -22 789 0
-786 -23 787 0
-786 -24 788 0
790 791 792 0
-787 -73 790 0
-787 -74 791 0
-787 -75 792 0
-788 -73 791 0
-788 -74 792 0
-788 -75 790 0
-789 -73 792 0
-789 -74 790 0
-789 -75 791 0
793 794 795 0
-790 -76 793 0
-790 -77 794 0
-790 -78 795 0
-791 -76 794 0
-791 -77 795 0
-791 -78 793 0
-792 -76 795 0
-792 -77 793 0
-792 -78 794 0
796 797 798 0
-793 -106 796 0
-793 -107 797 0
-793 -108 798 0
-794 -106 797 0
-794 -107 798 0
-794 -108 796 0
-795 -106 798 0
-795 -107 796 0
-795 -108 797 0
799 800 801 0
-10 -13 799 0
-10 -14 800 0
-10 -15 801 0
-11 -13 800 0
-11 -14 801 0
-11 -15 799 0
-12 -13 801 0
-12 -14 799 0
-12 -15 800 0
802 803 804 0
-799 -16 802 0
-799 -17 803 0
-799 -18 804 0
-800 -16 803 0
-800 -17 804 0
-800 -18 802 0
-801 -16 804 0
-801 -17 802 0
-801 -18 803 0
805 806 807 0
-802 -79 805 0
-802 -80 806 0
-802 -81 807 0
-803 -79 806 0
-803 -80 807 0
-803 -81 805 0
-804 -79 807 0
-804 -80 805 0
-804 -81 806 0
808 809 810 0
-805 -82 808 0
-805 -83 809 0
-805 -84 810 0
-806 -82 809 0
-806 -83 810 0
-806 -84 808 0
-807 -82 810 0
-807 -83 808 0
-807 -84 809 0
811 812 813 0
-808 -91 811 0
-808 -92 812 0
-808 -93 813 0
-809 -91 812 0
-809 -92 813 0
-809 -93 811 0
-810 -91 813 0
-810 -92 811 0
-810 -93 812 0
814 815 816 0
-10 -13 814 0
-10 -14 815 0
-10 -15 816 0
-11 -13 815 0
-11 -14 816 0
-11 -15 814 0
-12 -13 816 0
-12 -14 814 0
-12 -15 815 0
817 818 819 0
-814 -19 817 0
-814 -20 818 0
-814 -21 819 0
-815 -19 818 0
-815 -20 819 0
-815 -21 817 0
-816 -19 819 0
-816 -20 817 0
-816 -21 818 0
820 821 822 0
-817 -79 820 0
-817 -80 821 0
-817 -81 822 0
-818 -79 821 0
-818 -80 822 0
-818 -81 820 0
-819 -79 822 0
-819 -80 820 0
-819 -81 821 0
823 824 825 0
-820 -85 823 0
-820 -86 824 0
-820 -87 825 0
-821 -85 824 0
-821 -86 825 0
-821 -87 823 0
-822 -85 825 0
-822 -86 823 0
-822 -87 824 0
826 827 828 0
-823 -94 826 0
-823 -95 827 0
-823 -96 828 0
-824 -94 827 0
-824 -95 828 0
-824 -96 826 0
-825 -94 828 0
-825 -95 826 0
-825 -96 827 0
829 830 831 0
-10 -13 829 0
-10 -14 830 0
-10 -15 831 0
-11 -13 830 0
-11 -14 831 0
-11 -15 829 0
-12 -13 831 0
-12 -14 829 0
-12 -15 830 0
832 833 834 0
-829 -22 832 0
-829 -23 833 0
-829 -24 834 0
-830 -22 833 0
-830 -23 834 0
-830 -24 832 0
-831 -22 834 0
-831 -23 832 0
-831 -24 833 0
835 836 837 0
-832 -79 835 0
-832 -80 836 0
-832 -81 837 0
-833 -79 836 0
-833 -80 837 0
-833 -81 835 0
-834 -79 837 0
-834 -80 835 0
-834 -81 836 0
838 839 840 0
-835 -88 838 0
-835 -89 839 0
-835 -90 840 0
-836 -88 839 0
-836 -89 840 0
-836 -90 838 0
-837 -88 840 0
-837 -89 838 0
-837 -90 839 0
841 842 843 0
-838 -97 841 0
-838 -98 842 0
-838 -99 843 0
-839 -97 842 0
-839 -98 843 0
-839 -99 841 0
-840 -97 843 0
-840 -98 841 0
-840 -99 842 0
844 845 846 0
-10 -16 844 0
-10 -17 845 0
-10 -18 846 0
-11 -16 845 0
-11 -17 846 0
-11 -18 844 0
-12 -16 846 0
-12 -17 844 0
-12 -18 845 0
847 848 849 0
-844 -19 847 0
-844 -20 848 0
-844 -21 849 0
-845 -19 848 0
-845 -20 849 0
-845 -21 847 0
-846 -19 849 0
-846 -20 847 0
-846 -21 848 0
850 851 852 0
-847 -82 850 0
-847 -83 851 0
-847 -84 852 0
-848 -82 851 0
-848 -83 852 0
-848 -84 850 0
-849 -82 852 0
-849 -83 850 0
-849 -84 851 0
853 854 855 0
-850 -85 853 0
-850 -86 854 0
-850 -87 855 0
-851 -85 854 0
-851 -86 855 0
-851 -87 853 0
-852 -85 855 0
-852 -86 853 0
-852 -87 854 0
856 857 858 0
-853 -100 856 0
-853 -101 857 0
-853 -102 858 0
-854 -100 857 0
-854 -101 858 0
-854 -102 856 0
-855 -100 858 0
-855 -101 856 0
-855 -102 857 0
859 860 861 0
-10 -16 859 0
-10 -17 860 0
-10 -18 861 0
-11 -16 860 0
-11 -17 861 0
-11 -18 859 0
-12 -16 861 0
-12 -17 859 0
-12 -18 860 0
862 863 864 0
-859 -22 862 0
-859 -23 863 0
-859 -24 864 0
-860 -22 863 0
-860 -23 864 0
-860 -24 862 0
-861 -22 864 0
-861 -23 862 0
-861 -24 863 0
865 866 867 0
-862 -82 865 0
-862 -83 866 0
-862 -84 867 0
-863 -82 866 0
-863 -83 867 0
-863 -84 865 0
-864 -82 867 0
-864 -83 865 0
-864 -84 866 0
868 869 870 0
-865 -88 868 0
-865 -89 869 0
-865 -90 870 0
-866 -88 869 0
-866 -89 870 0
-866 -90 868 0
-867 -88 870 0
-867 -89 868 0
-867 -90 869 0
871 872 873 0
-868 -103 871 0
-868 -104 872 0
-868 -105 873 0
-869 -103 872 0
-869 -104 873 0
-869 -105 871 0
-870 -103 873 0
-870 -104 871 0
-870 -105 872 0
874 875 876 0
-10 -19 874 0
-10 -20 875 0
-10 -21 876 0
-11 -19 875 0
-11 -20 876 0
-11 -21 874 0
-12 -19 876 0
-12 -20 874 0
-12 -21 875 0
877 878 879 0
-874 -22 877 0
-874 -23 878 0
-874 -24 879 0
-875 -22 878 0
-875 -23 879 0
-875 -24 877 0
-876 -22 879 0
-876 -23 877 0
-876 -24 878 0
880 881 882 0
-877 -85 880 0
-877 -86 881 0
-877 -87 882 0
-878 -85 881 0
-878 -86 882 0
-878 -87 880 0
-879 -85 882 0
-879 -86 880 0
-879 -87 881 0
883 884 885 0
-880 -88 883 0
-880 -89 884 0
-880 -90 885 0
-881 -88 884 0
-881 -89 885 0
-881 -90 883 0
-882 -88 885 0
-882 -89 883 0
-882 -90 884 0
886 887 888 0
-883 -106 886 0
-883 -107 887 0
-883 -108 888 0
-884 -106 887 0
-884 -107 888 0
-884 -108 886 0
-885 -106 888 0
-885 -107 886 0
-885 -108 887 0
889 890 891 0
-13 -16 889 0
-13 -17 890 0
-13 -18 891 0
-14 -16 890 0
-14 -17 891 0
-14 -18 889 0
-15 -16 891 0
-15 -17 889 0
-15 -18 890 0
892 893 894 0
-889 -19 892 0
-889 -20 893 0
-889 -21 894 0
-890 -19 893 0
-890 -20 894 0
-890 -21 892 0
-891 -19 894 0
-891 -20 892 0
-891 -21 893 0
895 896 897 0
-892 -91 895 0
-892 -92 896 0
-892 -93 897 0
-893 -91 896 0
-893 -92 897 0
-893 -93 895 0
-894 -91 897 0
-894 -92 895 0
-894 -93 896 0
898 899 900 0
-895 -94 898 0
-895 -95 899 0
-895 -96 900 0
-896 -94 899 0
-896 -95 900 0
-896 -96 898 0
-897 -94 900 0
-897 -95 898 0
-897 -96 899 0
901 902 903 0
-898 -100 901 0
-898 -101 902 0
-898 -102 903 0
-899 -100 902 0
-899 -101 903 0
-899 -102 901 0
-900 -100 903 0
-900 -101 901 0
-900 -102 902 0
904 905 906 0
-13 -16 904 0
-13 -17 905 0
-13 -18 906 0
-14 -16 905 0
-14 -17 906 0
-14 -18 904 0
-15 -16 906 0
-15 -17 904 0
-15 -18 905 0
907 908 909 0
-904 -22 907 0
-904 -23 908 0
-904 -24 909 0
-905 -22 908 0
-905 -23 909 0
-905 -24 907 0
-906 -22 909 0
-906 -23 907 0
-906 -24 908 0
910 911 912 0
-907 -91 910 0
-907 -92 911 0
-907 -93 912 0
-908 -91 911 0
-908 -92 912 0
-908 -93 910 0
-909 -91 912 0
-909 -92 910 0
-909 -93 911 0
913 914 915 0
-910 -97 913 0
-910 -98 914 0
-910 -99 915 0
-911 -97 914 0
-911 -98 915 0
-911 -99 913 0
-912 -97 915 0
-912 -98 913 0
-912 -99 914 0
916 917 918 0
-913 -103 916 0
-913 -104 917 0
-913 -105 918 0
-914 -103 917 0
-914 -104 918 0
-914 -105 916 0
-915 -103 918 0
-915 -104 916 0
-915 -105 917 0
919 920 921 0
-13 -19 919 0
-13 -20 920 0
-13 -21 921 0
-14 -19 920 0
-14 -20 921 0
-14 -21 919 0
-15 -19 921 0
-15 -20 919 0
-15 -21 920 0
922 923 924 0
-919 -22 922 0
-919 -23 923 0
-919 -24 924 0
-920 -22 923 0
-920 -23 924 0
-920 -24 922 0
-921 -22 924 0
-921 -23 922 0
-921 -24 923 0
925 926 927 0
-922 -94 925 0
-922 -95 926 0
-922 -96 927 0
-923 -94 926 0
-923 -95 927 0
-923 -96 925 0
-924 -94 927 0
-924 -95 925 0
-924 -96 926 0
928 929 930 0
-925 -97 928 0
-925 -98 929 0
-925 -99 930 0
-926 -97 929 0
-926 -98 930 0
-926 -99 928 0
-927 -97 930 0
-927 -98 928 0
-927 -99 929 0
931 932 933 0
-928 -106 931 0
-928 -107 932 0
-928 -108 933 0
-929 -106 932 0
-929 -107 933 0
-929 -108 931 0
-930 -106 933 0
-930 -107 931 0
-930 -108 932 0
934 935 936 0
-16 -19 934 0
-16 -20 935 0
-16 -21 936 0
-17 -19 935 0
-17 -20 936 0
-17 -21 934 0
-18 -19 936 0
-18 -20 934 0
-18 -21 935 0
937 938 939 0
-934 -22 937 0
-934 -23 938 0
-934 -24 939 0
-935 -22 938 0
-935 -23 939 0
-935 -24 937 0
-936 -22 939 0
-936 -23 937 0
-936 -24 938 0
940 941 942 0
-937 -100 940 0
-937 -101 941 0
-937 -102 942 0
-938 -100 941 0
-938 -101 942 0
-938 -102 940 0
-939 -100 942 0
-939 -101 940 0
-939 -102 941 0
943 944 945 0
-940 -103 943 0
-940 -104 944 0
-940 -105 945 0
-941 -103 944 0
-941 -104 945 0
-941 -105 943 0
-942 -103 945 0
-942 -104 943 0
-942 -105 944 0
946 947 948 0
-943 -106 946 0
-943 -107 947 0
-943 -108 948 0
-944 -106 947 0
-944 -107 948 0
-944 -108 946 0
-945 -106 948 0
-945 -107 946 0
-945 -108 947 0
949 950 951 0
-25 -28 949 0
-25 -29 950 0
-25 -30 951 0
-26 -28 950 0
-26 -29 951 0
-26 -30 949 0
-27 -28 951 0
-27 -29 949 0
-27 -30 950 0
952 953 954 0
-949 -31 952 0
-949 -32 953 0
-949 -33 954 0
-950 -31 953 0
-950 -32 954 0
-950 -33 952 0
-951 -31 954 0
-951 -32 952 0
-951 -33 953 0
955 956 957 0
-952 -46 955 0
-952 -47 956 0
-952 -48 957 0
-953 -46 956 0
-953 -47 957 0
-953 -48 955 0
-954 -46 957 0
-954 -47 955 0
-954 -48 956 0
958 959 960 0
-955 -49 958 0
-955 -50 959 0
-955 -51 960 0
-956 -49 959 0
-956 -50 960 0
-956 -51 958 0
-957 -49 960 0
-957 -50 958 0
-957 -51 959 0
961 962 963 0
-958 -64 961 0
-958 -65 962 0
-958 -66 963 0
-959 -64 962 0
-959 -65 963 0
-959 -66 961 0
-960 -64 963 0
-960 -65 961 0
-960 -66 962 0
964 965 966 0
-25 -28 964 0
-25 -29 965 0
-25 -30 966 0
-26 -28 965 0
-26 -29 966 0
-26 -30 964 0
-27 -28 966 0
-27 -29 964 0
-27 -30 965 0
967 968 969 0
-964 -34 967 0
-964 -35 968 0
-964 -36 969 0
-965 -34 968 0
-965 -35 969 0
-965 -36 967 0
-966 -34 969 0
-966 -35 967 0
-966 -36 968 0
970 971 972 0
-967 -46 970 0
-967 -47 971 0
-967 -48 972 0
-968 -46 971 0
-968 -47 972 0
-968 -48 970 0
-969 -46 972 0
-969 -47 970 0
-969 -48 971 0
973 974 975 0
-970 -52 973 0
-970 -53 974 0
-970 -54 975 0
-971 -52 974 0
-971 -53 975 0
-971 -54 973 0
-972 -52 975 0
-972 -53 973 0
-972 -54 974 0
976 977 978 0
-973 -67 976 0
-973 -68 977 0
-973 -69 978 0
-974 -67 977 0
-974 -68 978 0
-974 -69 976 0
-975 -67 978 0
-975 -68 976 0
-975 -69 977 0
979 980 981 0
-25 -28 979 0
-25 -29 980 0
-25 -30 981 0
-26 -28 980 0
-26 -29 981 0
-26 -30 979 0
-27 -28 981 0
-27 -29 979 0
-27 -30 980 0
982 983 984 0
-979 -37 982 0
-979 -38 983 0
-979 -39 984 0
-980 -37 983 0
-980 -38 984 0
-980 -39 982 0
-981 -37 984 0
-981 -38 982 0
-981 -39 983 0
985 986 987 0
-982 -46 985 0
-982 -47 986 0
-982 -48 987 0
-983 -46 986 0
-983 -47 987 0
-983 -48 985 0
-984 -46 987 0
-984 -47 985 0
-984 -48 986 0
988 989 990 0
-985 -55 988 0
-985 -56 989 0
-985 -57 990 0
-986 -55 989 0
-986 -56 990 0
-986 -57 988 0
-987 -55 990 0
-987 -56 988 0
-987 -57 989 0
991 992 993 0
-988 -70 991 0
-988 -71 992 0
-988 -72 993 0
-989 -70 992 0
-989 -71 993 0
-989 -72 991 0
-990 -70 993 0
-990 -71 991 0
-990 -72 992 0
994 995 996 0
-25 -28 994 0
-25 -29 995 0
-25 -30 996 0
-26 -28 995 0
-26 -29 996 0
-26 -30 994 0
-27 -28 996 0
-27 -29 994 0
-27 -30 995 0
997 998 999 0
-994 -40 997 0
-994 -41 998 0
-994 -42 999 0
-995 -40 998 0
-995 -41 999 0
-995 -42 997 0
-996 -40 999 0
-996 -41 997 0
-996 -42 998 0
1000 1001 1002 0
-997 -46 1000 0
-997 -47 1001 0
-997 -48 1002 0
-998 -46 1001 0
-998 -47 1002 0
-998 -48 1000 0
-999 -46 1002 0
-999 -47 1000 0
-999 -48 1001 0
1003 1004 1005 0
-1000 -58 1003 0
-1000 -59 1004 0
-1000 -60 1005 0
-1001 -58 1004 0
-1001 -59 1005 0
-1001 -60 1003 0
-1002 -58 1005 0
-1002 -59 1003 0
-1002 -60 1004 0
1006 1007 1008 0
-1003 -73 1006 0
-1003 -74 1007 0
-1003 -75 1008 0
-1004 -73 1007 0
-1004 -74 1008 0
-1004 -75 1006 0
-1005 -73 1008 0
-1005 -74 1006 0
-1005 -75 1007 0
1009 1010 1011 0
-25 -28 1009 0
-25 -29 1010 0
-25 -30 1011 0
-26 -28 1010 0
-26 -29 1011 0
-26 -30 1009 0
-27 -28 1011 0
-27 -29 1009 0
-27 -30 1010 0
1012 1013 1014 0
-1009 -43 1012 0
-1009 -44 1013 0
-1009 -45 1014 0
-1010 -43 1013 0
-1010 -44 1014 0
-1010 -45 1012 0
-1011 -43 1014 0
-1011 -44 1012 0
-1011 -45 1013 0
1015 1016 1017 0
-1012 -46 1015 0
-1012 -47 1016 0
-1012 -48 1017 0
-1013 -46 1016 0
-1013 -47 1017 0
-1013 -48 1015 0
-1014 -46 1017 0
-1014 -47 1015 0
-1014 -48 1016 0
1018 1019 1020 0
-1015 -61 1018 0
-1015 -62 1019 0
-1015 -63 1020 0
-1016 -61 1019 0
-1016 -62 1020 0
-1016 -63 1018 0
-1017 -61 1020 0
-1017 -62 1018 0
-1017 -63 1019 0
1021 1022 1023 0
-1018 -76 1021 0
-1018 -77 1022 0
-1018 -78 1023 0
-1019 -76 1022 0
-1019 -77 1023 0
-1019 -78 1021 0
-1020 -76 1023 0
-1020 -77 1021 0
-1020 -78 1022 0
1024 1025 1026 0
-25 -31 1024 0
-25 -32 1025 0
-25 -33 1026 0
-26 -31 1025 0
-26 -32 1026 0
-26 -33 1024 0
-27 -31 1026 0
-27 -32 1024 0
-27 -33 1025 0
1027 1028 1029 0
-1024 -34 1027 0
-1024 -35 1028 0
-1024 -36 1029 0
-1025 -34 1028 0
-1025 -35 1029 0
-1025 -36 1027 0
-1026 -34 1029 0
-1026 -35 1027 0
-1026 -36 1028 0
1030 1031 1032 0
-1027 -49 1030 0
-1027 -50 1031 0
-1027 -51 1032 0
-1028 -49 1031 0
-1028 -50 1032 0
-1028 -51 1030 0
-1029 -49 1032 0
-1029 -50 1030 0
-1029 -51 1031 0
1033 1034 1035 0
-1030 -52 1033 0
-1030 -53 1034 0
-1030 -54 1035 0
-1031 -52 1034 0
-1031 -53 1035 0
-1031 -54 1033 0
-1032 -52 1035 0
-1032 -53 1033 0
-1032 -54 1034 0
1036 1037 1038 0
-1033 -79 1036 0
-1033 -80 1037 0
-1033 -81 1038 0
-1034 -79 1037 0
-1034 -80 1038 0
-1034 -81 1036 0
-1035 -79 1038 0
-1035 -80 1036 0
-1035 -81 1037 0
1039 1040 1041 0
-25 -31 1039 0
-25 -32 1040 0
-25 -33 1041 0
-26 -31 1040 0
-26 -32 1041 0
-26 -33 1039 0
-27 -31 1041 0
-27 -32 1039 0
-27 -33 1040 0
1042 1043 1044 0
-1039 -37 1042 0
-1039 -38 1043 0
-1039 -39 1044 0
-1040 -37 1043 0
-1040 -38 1044 0
-1040 -39 1042 0
-1041 -37 1044 0
-1041 -38 1042 0
-1041 -39 1043 0
1045 1046 1047 0
-1042 -49 1045 0
-1042 -50 1046 0
-1042 -51 1047 0
-1043 -49 1046 0
-1043 -50 1047 0
-1043 -51 1045 0
-1044 -49 1047 0
-1044 -50 1045 0
-1044 -51 1046 0
1048 1049 1050 0
-1045 -55 1048 0
-1045 -56 1049 0
-1045 -57 1050 0
-1046 -55 1049 0
-1046 -56 1050 0
-1046 -57 1048 0
-1047 -55 1050 0
-1047 -56 1048 0
-1047 -57 1049 0
1051 1052 1053 0
-1048 -82 1051 0
-1048 -83 1052 0
-1048 -84 1053 0
-1049 -82 1052 0
-1049 -83 1053 0
-1049 -84 1051 0
-1050 -82 1053 0
-1050 -83 1051 0
-1050 -84 1052 0
1054 1055 1056 0
-25 -31 1054 0
-25 -32 1055 0
-25 -33 1056 0
-26 -31 1055 0
-26 -32 1056 0
-26 -33 1054 0
-27 -31 1056 0
-27 -32 1054 0
-27 -33 1055 0
1057 1058 1059 0
-1054 -40 1057 0
-1054 -41 1058 0
-1054 -42 1059 0
-1055 -40 1058 0
-1055 -41 1059 0
-1055 -42 1057 0
-1056 -40 1059 0
-1056 -41 1057 0
-1056 -42 1058 0
1060 1061 1062 0
-1057 -49 1060 0
-1057 -50 1061 0
-1057 -51 1062 0
-1058 -49 1061 0
-1058 -50 1062 0
-1058 -51 1060 0
-1059 -49 1062 0
-1059 -50 1060 0
-1059 -51 1061 0
1063 1064 1065 0
-1060 -58 1063 0
-1060 -59 1064 0
-1060 -60 1065 0
-1061 -58 1064 0
-1061 -59 1065 0
-1061 -60 1063 0
-1062 -58 1065 0
-1062 -59 1063 0
-1062 -60 1064 0
1066 1067 1068 0
-1063 -85 1066 0
-1063 -86 1067 0
-1063 -87 1068 0
-1064 -85 1067 0
-1064 -86 1068 0
-1064 -87 1066 0
-1065 -85 1068 0
-1065 -86 1066 0
-1065 -87 1067 0
1069 1070 1071 0
-25 -31 1069 0
-25 -32 1070 0
-25 -33 1071 0
-26 -31 1070 0
-26 -32 1071 0
-26 -33 1069 0
-27 -31 1071 0
-27 -32 1069 0
-27 -33 1070 0
1072 1073 1074 0
-1069 -43 1072 0
-1069 -44 1073 0
-1069 -45 1074 0
-1070 -43 1073 0
-1070 -44 1074 0
-1070 -45 1072 0
-1071 -43 1074 0
-1071 -44 1072 0
-1071 -45 1073 0
1075 1076 1077 0
-1072 -49 1075 0
-1072 -50 1076 0
-1072 -51 1077 0
-1073 -49 1076 0
-1073 -50 1077 0
-1073 -51 1075 0
-1074 -49 1077 0
-1074 -50 1075 0
-1074 -51 1076 0
1078 1079 1080 0
-1075 -61 1078 0
-1075 -62 1079 0
-1075 -63 1080 0
-1076 -61 1079 0
-1076 -62 1080 0
-1076 -63 1078 0
-1077 -61 1080 0
-1077 -62 1078 0
-1077 -63 1079 0
1081 1082 1083 0
-1078 -88 1081 0
-1078 -89 1082 0
-1078 -90 1083 0
-1079 -88 1082 0
-1079 -89 1083 0
-1079 -90 1081 0
-1080 -88 1083 0
-1080 -89 1081 0
-1080 -90 1082 0
1084 1085 1086 0
-25 -34 1084 0
-25 -35 1085 0
-25 -36 1086 0
-26 -34 1085 0
-26 -35 1086 0
-26 -36 1084 0
-27 -34 1086 0
-27 -35 1084 0
-27 -36 1085 0
1087 1088 1089 0
-1084 -37 1087 0
-1084 -38 1088 0
-1084 -39 1089 0
-1085 -37 1088 0
-1085 -38 1089 0
-1085 -39 1087 0
-1086 -37 1089 0
-1086 -38 1087 0
-1086 -39 1088 0
1090 1091 1092 0
-1087 -52 1090 0
-1087 -53 1091 0
-1087 -54 1092 0
-1088 -52 1091 0
-1088 -53 1092 0
-1088 -54 1090 0
-1089 -52 1092 0
-1089 -53 1090 0
-1089 -54 1091 0
1093 1094 1095 0
-1090 -55 1093 0
-1090 -56 1094 0
-1090 -57 1095 0
-1091 -55 1094 0
-1091 -56 1095 0
-1091 -57 1093 0
-1092 -55 1095 0
-1092 -56 1093 0
-1092 -57 1094 0
1096 1097 1098 0
-1093 -91 1096 0
-1093 -92 1097 0
-1093 -93 1098 0
-1094 -91 1097 0
-1094 -92 1098 0
-1094 -93 1096 0
-1095 -91 1098 0
-1095 -92 1096 0
-1095 -93 1097 0
1099 1100 1101 0
-25 -34 1099 0
-25 -35 1100 0
-25 -36 1101 0
-26 -34 1100 0
-26 -35 1101 0
-26 -36 1099 0
-27 -34 1101 0
-27 -35 1099 0
-27 -36 1100 0
1102 1103 1104 0
-1099 -40 1102 0
-1099 -41 1103 0
-1099 -42 1104 0
-1100 -40 1103 0
-1100 -41 1104 0
-1100 -42 1102 0
-1101 -40 1104 0
-1101 -41 1102 0
-1101 -42 1103 0
1105 1106 1107 0
-1102 -52 1105 0
-1102 -53 1106 0
-1102 -54 1107 0
-1103 -52 1106 0
-1103 -53 1107 0
-1103 -54 1105 0
-1104 -52 1107 0
-1104 -53 1105 0
-1104 -54 1106 0
1108 1109 1110 0
-1105 -58 1108 0
-1105 -59 1109 0
-1105 -60 1110 0
-1106 -58 1109 0
-1106 -59 1110 0
-1106 -60 1108 0
-1107 -58 1110 0
-1107 -59 1108 0
-1107 -60 1109 0
1111 1112 1113 0
-1108 -94 1111 0
-1108 -95 1112 0
-1108 -96 1113 0
-1109 -94 1112 0
-1109 -95 1113 0
-1109 -96 1111 0
-1110 -94 1113 0
-1110 -95 1111 0
-1110 -96 1112 0
1114 1115 1116 0
-25 -34 1114 0
-25 -35 1115 0
-25 -36 1116 0
-26 -34 1115 0
-26 -35 1116 0
-26 -36 1114 0
-27 -34 1116 0
-27 -35 1114 0
-27 -36 1115 0
1117 1118 1119 0
-1114 -43 1117 0
-1114 -44 1118 0
-1114 -45 1119 0
-1115 -43 1118 0
-1115 -44 1119 0
-1115 -45 1117 0
-1116 -43 1119 0
-1116 -44 1117 0
-1116 -45 1118 0
1120 1121 1122 0
-1117 -52 1120 0
-1117 -53 1121 0
-1117 -54 1122 0
-1118 -52 1121 0
-1118 -53 1122 0
-1118 -54 1120 0
-1119 -52 1122 0
-1119 -53 1120 0
-1119 -54 1121 0
1123 1124 1125 0
-1120 -61 1123 0
-1120 -62 1124 0
-1120 -63 1125 0
-1121 -61 1124 0
-1121 -62 1125 0
-1121 -63 1123 0
-1122 -61 1125 0
-1122 -62 1123 0
-1122 -63 1124 0
1126 1127 1128 0
-1123 -97 1126 0
-1123 -98 1127 0
-1123 -99 1128 0
-1124 -97 1127 0
-1124 -98 1128 0
-1124 -99 1126 0
-1125 -97 1128 0
-1125 -98 1126 0
-1125 -99 1127 0
1129 1130 1131 0
-25 -37 1129 0
-25 -38 1130 0
-25 -39 1131 0
-26 -37 1130 0
-26 -38 1131 0
-26 -39 1129 0
-27 -37 1131 0
-27 -38 1129 0
-27 -39 1130 0
1132 1133 1134 0
-1129 -40 1132 0
-1129 -41 1133 0
-1129 -42 1134 0
-1130 -40 1133 0
-1130 -41 1134 0
-1130 -42 1132 0
-1131 -40 1134 0
-1131 -41 1132 0
-1131 -42 1133 0
1135 1136 1137 0
-1132 -55 1135 0
-1132 -56 1136 0
-1132 -57 1137 0
-1133 -55 1136 0
-1133 -56 1137 0
-1133 -57 1135 0
-1134 -55 1137 0
-1134 -56 1135 0
-1134 -57 1136 0
1138 1139 1140 0
-1135 -58 1138 0
-1135 -59 1139 0
-1135 -60 1140 0
-1136 -58 1139 0
-1136 -59 1140 0
-1136 -60 1138 0
-1137 -58 1140 0
-1137 -59 1138 0
-1137 -60 1139 0
1141 1142 1143 0
-1138 -100 1141 0
-1138 -101 1142 0
-1138 -102 1143 0
-1139 -100 1142 0
-1139 -101 1143 0
-1139 -102 1141 0
-1140 -100 1143 0
-1140 -101 1141 0
-1140 -102 1142 0
1144 1145 1146 0
-25 -37 1144 0
-25 -38 1145 0
-25 -39 1146 0
-26 -37 1145 0
-26 -38 1146 0
-26 -39 1144 0
-27 -37 1146 0
-27 -38 1144 0
-27 -39 1145 0
1147 1148 1149 0
-1144 -43 1147 0
-1144 -44 1148 0
-1144 -45 1149 0
-1145 -43 1148 0
-1145 -44 1149 0
-1145 -45 1147 0
-1146 -43 1149 0
-1146 -44 1147 0
-1146 -45 1148 0
1150 1151 1152 0
-1147 -55 1150 0
-1147 -56 1151 0
-1147 -57 1152 0
-1148 -55 1151 0
-1148 -56 1152 0
-1148 -57 1150 0
-1149 -55 1152 0
-1149 -56 1150 0
-1149 -57 1151 0
1153 1154 1155 0
-1150 -61 1153 0
-1150 -62 1154 0
-1150 -63 1155 0
-1151 -61 1154 0
-1151 -62 1155 0
-1151 -63 1153 0
-1152 -61 1155 0
-1152 -62 1153 0
-1152 -63 1154 0
1156 1157 1158 0
-1153 -103 1156 0
-1153 -104 1157 0
-1153 -105 1158 0
-1154 -103 1157 0
-1154 -104 1158 0
-1154 -105 1156 0
-1155 -103 1158 0
-1155 -104 1156 0
-1155 -105 1157 0
1159 1160 1161 0
-25 -40 1159 0
-25 -41 1160 0
-25 -42 1161 0
-26 -40 1160 0
-26 -41 1161 0
-26 -42 1159 0
-27 -40 1161 0
-27 -41 1159 0
-27 -42 1160 0
1162 1163 1164 0
-1159 -43 1162 0
-1159 -44 1163 0
-1159 -45 1164 0
-1160 -43 1163 0
-1160 -44 1164 0
-1160 -45 1162 0
-1161 -43 1164 0
-1161 -44 1162 0
-1161 -45 1163 0
1165 1166 1167 0
-1162 -58 1165 0
-1162 -59 1166 0
-1162 -60 1167 0
-1163 -58 1166 0
-1163 -59 1167 0
-1163 -60 1165 0
-1164 -58 1167 0
-1164 -59 1165 0
-1164 -60 1166 0
1168 1169 1170 0
-1165 -61 1168 0
-1165 -62 1169 0
-1165 -63 1170 0
-1166 -61 1169 0
-1166 -62 1170 0
-1166 -63 1168 0
-1167 -61 1170 0
-1167 -62 1168 0
-1167 -63 1169 0
1171 1172 1173 0
-1168 -106 1171 0
-1168 -107 1172 0
-1168 -108 1173 0
-1169 -106 1172 0
-1169 -107 1173 0
-1169 -108 1171 0
-1170 -106 1173 0
-1170 -107 1171 0
-1170 -108 1172 0
1174 1175 1176 0
-28 -31 1174 0
-28 -32 1175 0
-28 -33 1176 0
-29 -31 1175 0
-29 -32 1176 0
-29 -33 1174 0
-30 -31 1176 0
-30 -32 1174 0
-30 -33 1175 0
1177 1178 1179 0
-1174 -34 1177 0
-1174 -35 1178 0
-1174 -36 1179 0
-1175 -34 1178 0
-1175 -35 1179 0
-1175 -36 1177 0
-1176 -34 1179 0
-1176 -35 1177 0
-1176 -36 1178 0
1180 1181 1182 0
-1177 -64 1180 0
-1177 -65 1181 0
-1177 -66 1182 0
-1178 -64 1181 0
-1178 -65 1182 0
-1178 -66 1180 0
-1179 -64 1182 0
-1179 -65 1180 0
-1179 -66 1181 0
1183 1184 1185 0
-1180 -67 1183 0
-1180 -68 1184 0
-1180 -69 1185 0
-1181 -67 1184 0
-1181 -68 1185 0
-1181 -69 1183 0
-1182 -67 1185 0
-1182 -68 1183 0
-1182 -69 1184 0
1186 1187 1188 0
-1183 -79 1186 0
-1183 -80 1187 0
-1183 -81 1188 0
-1184 -79 1187 0
-1184 -80 1188 0
-1184 -81 1186 0
-1185 -79 1188 0
-1185 -80 1186 0
-1185 -81 1187 0
1189 1190 1191 0
-28 -31 1189 0
-28 -32 1190 0
-28 -33 1191 0
-29 -31 1190 0
-29 -32 1191 0
-29 -33 1189 0
-30 -31 1191 0
-30 -32 1189 0
-30 -33 1190 0
1192 1193 1194 0
-1189 -37 1192 0
-1189 -38 1193 0
-1189 -39 1194 0
-1190 -37 1193 0
-1190 -38 1194 0
-1190 -39 1192 0
-1191 -37 1194 0
-1191 -38 1192 0
-1191 -39 1193 0
1195 1196 1197 0
-1192 -64 1195 0
-1192 -65 1196 0
-1192 -66 1197 0
-1193 -64 1196 0
-1193 -65 1197 0
-1193 -66 1195 0
-1194 -64 1197 0
-1194 -65 1195 0
-1194 -66 1196 0
1198 1199 1200 0
-1195 -70 1198 0
-1195 -71 1199 0
-1195 -72 1200 0
-1196 -70 1199 0
-1196 -71 1200 0
-1196 -72 1198 0
-1197 -70 1200 0
-1197 -71 1198 0
-1197 -72 1199 0
1201 1202 1203 0
-1198 -82 1201 0
-1198 -83 1202 0
-1198 -84 1203 0
-1199 -82 1202 0
-1199 -83 1203 0
-1199 -84 1201 0
-1200 -82 1203 0
-1200 -83 1201 0
-1200 -84 1202 0
1204 1205 1206 0
-28 -31 1204 0
-28 -32 1205 0
-28 -33 1206 0
-29 -31 1205 0
-29 -32 1206 0
-29 -33 1204 0
-30 -31 1206 0
-30 -32 1204 0
-30 -33 1205 0
1207 1208 1209 0
-1204 -40 1207 0
-1204 -41 1208 0
-1204 -42 1209 0
-1205 -40 1208 0
-1205 -41 1209 0
-1205 -42 1207 0
-1206 -40 1209 0
-1206 -41 1207 0
-1206 -42 1208 0
1210 1211 1212 0
-1207 -64 1210 0
-1207 -65 1211 0
-1207 -66 1212 0
-1208 -64 1211 0
-1208 -65 1212 0
-1208 -66 1210 0
-1209 -64 1212 0
-1209 -65 1210 0
-1209 -66 1211 0
1213 1214 1215 0
-1210 -73 1213 0
-1210 -74 1214 0
-1210 -75 1215 0
-1211 -73 1214 0
-1211 -74 1215 0
-1211 -75 1213 0
-1212 -73 1215 0
-1212 -74 1213 0
-1212 -75 1214 0
1216 1217 1218 0
-1213 -85 1216 0
-1213 -86 1217 0
-1213 -87 1218 0
-1214 -85 1217 0
-1214 -86 1218 0
-1214 -87 1216 0
-1215 -85 1218 0
-1215 -86 1216 0
-1215 -87 1217 0
1219 1220 1221 0
-28 -31 1219 0
-28 -32 1220 0
-28 -33 1221 0
-29 -31 1220 0
-29 -32 1221 0
-29 -33 1219 0
-30 -31 1221 0
-30 -32 1219 0
-30 -33 1220 0
1222 1223 1224 0
-1219 -43 1222 0
-1219 -44 1223 0
-1219 -45 1224 0
-1220 -43 1223 0
-1220 -44 1224 0
-1220 -45 1222 0
-1221 -43 1224 0
-1221 -44 1222 0
-1221 -45 1223 0
1225 1226 1227 0
-1222 -64 1225 0
-1222 -65 1226 0
-1222 -66 1227 0
-1223 -64 1226 0
-1223 -65 1227 0
-1223 -66 1225 0
-1224 -64 1227 0
-1224 -65 1225 0
-1224 -66 1226 0
1228 1229 1230 0
-1225 -76 1228 0
-1225 -77 1229 0
-1225 -78 1230 0
-1226 -76 1229 0
-1226 -77 1230 0
-1226 -78 1228 0
-1227 -76 1230 0
-1227 -77 1228 0
-1227 -78 1229 0
1231 1232 1233 0
-1228 -88 1231 0
-1228 -89 1232 0
-1228 -90 1233 0
-1229 -88 1232 0
-1229 -89 1233 0
-1229 -90 1231 0
-1230 -88 1233 0
-1230 -89 1231 0
-1230 -90 1232 0
1234 1235 1236 0
-28 -34 1234 0
-28 -35 1235 0
-28 -36 1236 0
-29 -34 1235 0
-29 -35 1236 0
-29 -36 1234 0
-30 -34 1236 0
-30 -35 1234 0
-30 -36 1235 0
1237 1238 1239 0
-1234 -37 1237 0
-1234 -38 1238 0
-1234 -39 1239 0
-1235 -37 1238 0
-1235 -38 1239 0
-1235 -39 1237 0
-1236 -37 1239 0
-1236 -38 1237 0
-1236 -39 1238 0
1240 1241 1242 0
-1237 -67 1240 0
-1237 -68 1241 0
-1237 -69 1242 0
-1238 -67 1241 0
-1238 -68 1242 0
-1238 -69 1240 0
-1239 -67 1242 0
-1239 -68 1240 0
-1239 -69 1241 0
1243 1244 1245 0
-1240 -70 1243 0
-1240 -71 1244 0
-1240 -72 1245 0
-1241 -70 1244 0
-1241 -71 1245 0
-1241 -72 1243 0
-1242 -70 1245 0
-1242 -71 1243 0
-1242 -72 1244 0
1246 1247 1248 0
-1243 -91 1246 0
-1243 -92 1247 0
-1243 -93 1248 0
-1244 -91 1247 0
-1244 -92 1248 0
-1244 -93 1246 0
-1245 -91 1248 0
-1245 -92 1246 0
-1245 -93 1247 0
1249 1250 1251 0
-28 -34 1249 0
-28 -35 1250 0
-28 -36 1251 0
-29 -34 1250 0
-29 -35 1251 0
-29 -36 1249 0
-30 -34 1251 0
-30 -35 1249 0
-30 -36 1250 0
1252 1253 1254 0
-1249 -40 1252 0
-1249 -41 1253 0
-1249 -42 1254 0
-1250 -40 1253 0
-1250 -41 1254 0
-1250 -42 1252 0
-1251 -40 1254 0
-1251 -41 1252 0
-1251 -42 1253 0
1255 1256 1257 0
-1252 -67 1255 0
-1252 -68 1256 0
-1252 -69 1257 0
-1253 -67 1256 0
-1253 -68 1257 0
-1253 -69 1255 0
-1254 -67 1257 0
-1254 -68 1255 0
-1254 -69 1256 0
1258 1259 1260 0
-1255 -73 1258 0
-1255 -74 1259 0
-1255 -75 1260 0
-1256 -73 1259 0
-1256 -74 1260 0
-1256 -75 1258 0
-1257 -73 1260 0
-1257 -74 1258 0
-1257 -75 1259 0
1261 1262 1263 0
-1258 -94 1261 0
-1258 -95 1262 0
-1258 -96 1263 0
-1259 -94 1262 0
-1259 -95 1263 0
-1259 -96 1261 0
-1260 -94 1263 0
-1260 -95 1261 0
-1260 -96 1262 0
1264 1265 1266 0
-28 -34 1264 0
-28 -35 1265 0
-28 -36 1266 0
-29 -34 1265 0
-29 -35 1266 0
-29 -36 1264 0
-30 -34 1266 0
-30 -35 1264 0
-30 -36 1265 0
1267 1268 1269 0
-1264 -43 1267 0
-1264 -44 1268 0
-1264 -45 1269 0
-1265 -43 1268 0
-1265 -44 1269 0
-1265 -45 1267 0
-1266 -43 1269 0
-1266 -44 1267 0
-1266 -45 1268 0
1270 1271 1272 0
-1267 -67 1270 0
-1267 -68 1271 0
-1267 -69 1272 0
-1268 -67 1271 0
-1268 -68 1272 0
-1268 -69 1270 0
-1269 -67 1272 0
-1269 -68 1270 0
-1269 -69 1271 0
1273 1274 1275 0
-1270 -76 1273 0
-1270 -77 1274 0
-1270 -78 1275 0
-1271 -76 1274 0
-1271 -77 1275 0
-1271 -78 1273 0
-1272 -76 1275 0
-1272 -77 1273 0
-1272 -78 1274 0
1276 1277 1278 0
-1273 -97 1276 0
-1273 -98 1277 0
-1273 -99 1278 0
-1274 -97 1277 0
-1274 -98 1278 0
-1274 -99 1276 0
-1275 -97 1278 0
-1275 -98 1276 0
-1275 -99 1277 0
1279 1280 1281 0
-28 -37 1279 0
-28 -38 1280 0
-28 -39 1281 0
-29 -37 1280 0
-29 -38 1281 0
-29 -39 1279 0
-30 -37 1281 0
-30 -38 1279 0
-30 -39 1280 0
1282 1283 1284 0
-1279 -40 1282 0
-1279 -41 1283 0
-1279 -42 1284 0
-1280 -40 1283 0
-1280 -41 1284 0
-1280 -42 1282 0
-1281 -40 1284 0
-1281 -41 1282 0
-1281 -42 1283 0
1285 1286 1287 0
-1282 -70 1285 0
-1282 -71 1286 0
-1282 -72 1287 0
-1283 -70 1286 0
-1283 -71 1287 0
-1283 -72 1285 0
-1284 -70 1287 0
-1284 -71 1285 0
-1284 -72 1286 0
1288 1289 1290 0
-1285 -73 1288 0
-1285 -74 1289 0
-1285 -75 1290 0
-1286 -73 1289 0
-1286 -74 1290 0
-1286 -75 1288 0
-1287 -73 1290 0
-1287 -74 1288 0
-1287 -75 1289 0
1291 1292 1293 0
-1288 -100 1291 0
-1288 -101 1292 0
-1288 -102 1293 0
-1289 -100 1292 0
-1289 -101 1293 0
-1289 -102 1291 0
-1290 -100 1293 0
-1290 -101 1291 0
-1290 -102 1292 0
1294 1295 1296 0
-28 -37 1294 0
-28 -38 1295 0
-28 -39 1296 0
-29 -37 1295 0
-29 -38 1296 0
-29 -39 1294 0
-30 -37 1296 0
-30 -38 1294 0
-30 -39 1295 0
1297 1298 1299 0
-1294 -43 1297 0
-1294 -44 1298 0
-1294 -45 1299 0
-1295 -43 1298 0
-1295 -44 1299 0
-1295 -45 1297 0
-1296 -43 1299 0
-1296 -44 1297 0
-1296 -45 1298 0
1300 1301 1302 0
-1297 -70 1300 0
-1297 -71 1301 0
-1297 -72 1302 0
-1298 -70 1301 0
-1298 -71 1302 0
-1298 -72 1300 0
-1299 -70 1302 0
-1299 -71 1300 0
-1299 -72 1301 0
1303 1304 1305 0
-1300 -76 1303 0
-1300 -77 1304 0
-1300 -78 1305 0
-1301 -76 1304 0
-1301 -77 1305 0
-1301 -78 1303 0
-1302 -76 1305 0
-1302 -77 1303 0
-1302 -78 1304 0
1306 1307 1308 0
-1303 -103 1306 0
-1303 -104 1307 0
-1303 -105 1308 0
-1304 -103 1307 0
-1304 -104 1308 0
-1304 -105 1306 0
-1305 -103 1308 0
-1305 -104 1306 0
-1305 -105 1307 0
1309 1310 1311 0
-28 -40 1309 0
-28 -41 1310 0
-28 -42 1311 0
-29 -40 1310 0
-29 -41 1311 0
-29 -42 1309 0
-30 -40 1311 0
-30 -41 1309 0
-30 -42 1310 0
1312 1313 1314 0
-1309 -43 1312 0
-1309 -44 1313 0
-1309 -45 1314 0
-1310 -43 1313 0
-1310 -44 1314 0
-1310 -45 1312 0
-1311 -43 1314 0
-1311 -44 1312 0
-1311 -45 1313 0
1315 1316 1317 0
-1312 -73 1315 0
-1312 -74 1316 0
-1312 -75 1317 0
-1313 -73 1316 0
-1313 -74 1317 0
-1313 -75 1315 0
-1314 -73 1317 0
-1314 -74 1315 0
-1314 -75 1316 0
1318 1319 1320 0
-1315 -76 1318 0
-1315 -77 1319 0
-1315 -78 1320 0
-1316 -76 1319 0
-1316 -77 1320 0
-1316 -78 1318 0
-1317 -76 1320 0
-1317 -77 1318 0
-1317 -78 1319 0
1321 1322 1323 0
-1318 -106 1321 0
-1318 -107 1322 0
-1318 -108 1323 0
-1319 -106 1322 0
-1319 -107 1323 0
-1319 -108 1321 0
-1320 -106 1323 0
-1320 -107 1321 0
-1320 -108 1322 0
1324 1325 1326 0
-31 -34 1324 0
-31 -35 1325 0
-31 -36 1326 0
-32 -34 1325 0
-32 -35 1326 0
-32 -36 1324 0
-33 -34 1326 0
-33 -35 1324 0
-33 -36 1325 0
1327 1328 1329 0
-1324 -37 1327 0
-1324 -38 1328 0
-1324 -39 1329 0
-1325 -37 1328 0
-1325 -38 1329 0
-1325 -39 1327 0
-1326 -37 1329 0
-1326 -38 1327 0
-1326 -39 1328 0
1330 1331 1332 0
-1327 -79 1330 0
-1327 -80 1331 0
-1327 -81 1332 0
-1328 -79 1331 0
-1328 -80 1332 0
-1328 -81 1330 0
-1329 -79 1332 0
-1329 -80 1330 0
-1329 -81 1331 0
1333 1334 1335 0
-1330 -82 1333 0
-1330 -83 1334 0
-1330 -84 1335 0
-1331 -82 1334 0
-1331 -83 1335 0
-1331 -84 1333 0
-1332 -82 1335 0
-1332 -83 1333 0
-1332 -84 1334 0
1336 1337 1338 0
-1333 -91 1336 0
-1333 -92 1337 0
-1333 -93 1338 0
-1334 -91 1337 0
-1334 -92 1338 0
-1334 -93 1336 0
-1335 -91 1338 0
-1335 -92 1336 0
-1335 -93 1337 0
1339 1340 1341 0
-31 -34 1339 0
-31 -35 1340 0
-31 -36 1341 0
-32 -34 1340 0
-32 -35 1341 0
-32 -36 1339 0
-33 -34 1341 0
-33 -35 1339 0
-33 -36 1340 0
1342 1343 1344 0
-1339 -40 1342 0
-1339 -41 1343 0
-1339 -42 1344 0
-1340 -40 1343 0
-1340 -41 1344 0
-1340 -42 1342 0
-1341 -40 1344 0
-1341 -41 1342 0
-1341 -42 1343 0
1345 1346 1347 0
-1342 -79 1345 0
-1342 -80 1346 0
-1342 -81 1347 0
-1343 -79 1346 0
-1343 -80 1347 0
-1343 -81 1345 0
-1344 -79 1347 0
-1344 -80 1345 0
-1344 -81 1346 0
1348 1349 1350 0
-1345 -85 1348 0
-1345 -86 1349 0
-1345 -87 1350 0
-1346 -85 1349 0
-1346 -86 1350 0
-1346 -87 1348 0
-1347 -85 1350 0
-1347 -86 1348 0
-1347 -87 1349 0
1351 1352 1353 0
-1348 -94 1351 0
-1348 -95 1352 0
-1348 -96 1353 0
-1349 -94 1352 0
-1349 -95 1353 0
-1349 -96 1351 0
-1350 -94 1353 0
-1350 -95 1351 0
-1350 -96 1352 0
1354 1355 1356 0
-31 -34 1354 0
-31 -35 1355 0
-31 -36 1356 0
-32 -34 1355 0
-32 -35 1356 0
-32 -36 1354 0
-33 -34 1356 0
-33 -35 1354 0
-33 -36 1355 0
1357 1358 1359 0
-1354 -43 1357 0
-1354 -44 1358 0
-1354 -45 1359 0
-1355 -43 1358 0
-1355 -44 1359 0
-1355 -45 1357 0
-1356 -43 1359 0
-1356 -44 1357 0
-1356 -45 1358 0
1360 1361 1362 0
-1357 -79 1360 0
-1357 -80 1361 0
-1357 -81 1362 0
-1358 -79 1361 0
-1358 -80 1362 0
-1358 -81 1360 0
-1359 -79 1362 0
-1359 -80 1360 0
-1359 -81 1361 0
1363 1364 1365 0
-1360 -88 1363 0
-1360 -89 1364 0
-1360 -90 1365 0
-1361 -88 1364 0
-1361 -89 1365 0
-1361 -90 1363 0
-1362 -88 1365 0
-1362 -89 1363 0
-1362 -90 1364 0
1366 1367 1368 0
-1363 -97 1366 0
-1363 -98 1367 0
-1363 -99 1368 0
-1364 -97 1367 0
-1364 -98 1368 0
-1364 -99 1366 0
-1365 -97 1368 0
-1365 -98 1366 0
-1365 -99 1367 0
1369 1370 1371 0
-31 -37 1369 0
-31 -38 1370 0
-31 -39 1371 0
-32 -37 1370 0
-32 -38 1371 0
-32 -39 1369 0
-33 -37 1371 0
-33 -38 1369 0
-33 -39 1370 0
1372 1373 1374 0
-1369 -40 1372 0
-1369 -41 1373 0
-1369 -42 1374 0
-1370 -40 1373 0
-1370 -41 1374 0
-1370 -42 1372 0
-1371 -40 1374 0
-1371 -41 1372 0
-1371 -42 1373 0
1375 1376 1377 0
-1372 -82 1375 0
-1372 -83 1376 0
-1372 -84 1377 0
-1373 -82 1376 0
-1373 -83 1377 0
-1373 -84 1375 0
-1374 -82 1377 0
-1374 -83 1375 0
-1374 -84 1376 0
1378 1379 1380 0
-1375 -85 1378 0
-1375 -86 1379 0
-1375 -87 1380 0
-1376 -85 1379 0
-1376 -86 1380 0
-1376 -87 1378 0
-1377 -85 1380 0
-1377 -86 1378 0
-1377 -87 1379 0
1381 1382 1383 0
-1378 -100 1381 0
-1378 -101 1382 0
-1378 -102 1383 0
-1379 -100 1382 0
-1379 -101 1383 0
-1379 -102 1381 0
-1380 -100 1383 0
-1380 -101 1381 0
-1380 -102 1382 0
1384 1385 1386 0
-31 -37 1384 0
-31 -38 1385 0
-31 -39 1386 0
-32 -37 1385 0
-32 -38 1386 0
-32 -39 1384 0
-33 -37 1386 0
-33 -38 1384 0
-33 -39 1385 0
1387 1388 1389 0
-1384 -43 1387 0
-1384 -44 1388 0
-1384 -45 1389 0
-1385 -43 1388 0
-1385 -44 1389 0
-1385 -45 1387 0
-1386 -43 1389 0
-1386 -44 1387 0
-1386 -45 1388 0
1390 1391 1392 0
-1387 -82 1390 0
-1387 -83 1391 0
-1387 -84 1392 0
-1388 -82 1391 0
-1388 -83 1392 0
-1388 -84 1390 0
-1389 -82 1392 0
-1389 -83 1390 0
-1389 -84 1391 0
1393 1394 1395 0
-1390 -88 1393 0
-1390 -89 1394 0
-1390 -90 1395 0
-1391 -88 1394 0
-1391 -89 1395 0
-1391 -90 1393 0
-1392 -88 1395 0
-1392 -89 1393 0
-1392 -90 1394 0
1396 1397 1398 0
-1393 -103 1396 0
-1393 -104 1397 0
-1393 -105 1398 0
-1394 -103 1397 0
-1394 -104 1398 0
-1394 -105 1396 0
-1395 -103 1398 0
-1395 -104 1396 0
-1395 -105 1397 0
1399 1400 1401 0
-31 -40 1399 0
-31 -41 1400 0
-31 -42 1401 0
-32 -40 1400 0
-32 -41 1401 0
-32 -42 1399 0
-33 -40 1401 0
-33 -41 1399 0
-33 -42 1400 0
1402 1403 1404 0
-1399 -43 1402 0
-1399 -44 1403 0
-1399 -45 1404 0
-1400 -43 1403 0
-1400 -44 1404 0
-1400 -45 1402 0
-1401 -43 1404 0
-1401 -44 1402 0
-1401 -45 1403 0
1405 1406 1407 0
-1402 -85 1405 0
-1402 -86 1406 0
-1402 -87 1407 0
-1403 -85 1406 0
-1403 -86 1407 0
-1403 -87 1405 0
-1404 -85 1407 0
-1404 -86 1405 0
-1404 -87 1406 0
1408 1409 1410 0
-1405 -88 1408 0
-1405 -89 1409 0
-1405 -90 1410 0
-1406 -88 1409 0
-1406 -89 1410 0
-1406 -90 1408 0
-1407 -88 1410 0
-1407 -89 1408 0
-1407 -90 1409 0
1411 1412 1413 0
-1408 -106 1411 0
-1408 -107 1412 0
-1408 -108 1413 0
-1409 -106 1412 0
-1409 -107 1413 0
-1409 -108 1411 0
-1410 -106 1413 0
-1410 -107 1411 0
-1410 -108 1412 0
1414 1415 1416 0
-34 -37 1414 0
-34 -38 1415 0
-34 -39 1416 0
-35 -37 1415 0
-35 -38 1416 0
-35 -39 1414 0
-36 -37 1416 0
-36 -38 1414 0
-36 -39 1415 0
1417 1418 1419 0
-1414 -40 1417 0
-1414 -41 1418 0
-1414 -42 1419 0
-1415 -40 1418 0
-1415 -41 1419 0
-1415 -42 1417 0
-1416 -40 1419 0
-1416 -41 1417 0
-1416 -42 1418 0
1420 1421 1422 0
-1417 -91 1420 0
-1417 -92 1421 0
-1417 -93 1422 0
-1418 -91 1421 0
-1418 -92 1422 0
-1418 -93 1420 0
-1419 -91 1422 0
-1419 -92 1420 0
-1419 -93 1421 0
1423 1424 1425 0
-1420 -94 1423 0
-1420 -95 1424 0
-1420 -96 1425 0
-1421 -94 1424 0
-1421 -95 1425 0
-1421 -96 1423 0
-1422 -94 1425 0
-1422 -95 1423 0
-1422 -96 1424 0
1426 1427 1428 0
-1423 -100 1426 0
-1423 -101 1427 0
-1423 -102 1428 0
-1424 -100 1427 0
-1424 -101 1428 0
-1424 -102 1426 0
-1425 -100 1428 0
-1425 -101 1426 0
-1425 -102 1427 0
1429 1430 1431 0
-34 -37 1429 0
-34 -38 1430 0
-34 -39 1431 0
-35 -37 1430 0
-35 -38 1431 0
-35 -39 1429 0
-36 -37 1431 0
-36 -38 1429 0
-36 -39 1430 0
1432 1433 1434 0
-1429 -43 1432 0
-1429 -44 1433 0
-1429 -45 1434 0
-1430 -43 1433 0
-1430 -44 1434 0
-1430 -45 1432 0
-1431 -43 1434 0
-1431 -44 1432 0
-1431 -45 1433 0
1435 1436 1437 0
-1432 -91 1435 0
-1432 -92 1436 0
-1432 -93 1437 0
-1433 -91 1436 0
-1433 -92 1437 0
-1433 -93 1435 0
-1434 -91 1437 0
-1434 -92 1435 0
-1434 -93 1436 0
1438 1439 1440 0
-1435 -97 1438 0
-1435 -98 1439 0
-1435 -99 1440 0
-1436 -97 1439 0
-1436 -98 1440 0
-1436 -99 1438 0
-1437 -97 1440 0
-1437 -98 1438 0
-1437 -99 1439 0
1441 1442 1443 0
-1438 -103 1441 0
-1438 -104 1442 0
-1438 -105 1443 0
-1439 -103 1442 0
-1439 -104 1443 0
-1439 -105 1441 0
-1440 -103 1443 0
-1440 -104 1441 0
-1440 -105 1442 0
1444 1445 1446 0
-34 -40 1444 0
-34 -41 1445 0
-34 -42 1446 0
-35 -40 1445 0
-35 -41 1446 0
-35 -42 1444 0
-36 -40 1446 0
-36 -41 1444 0
-36 -42 1445 0
1447 1448 1449 0
-1444 -43 1447 0
-1444 -44 1448 0
-1444 -45 1449 0
-1445 -43 1448 0
-1445 -44 1449 0
-1445 -45 1447 0
-1446 -43 1449 0
-1446 -44 1447 0
-1446 -45 1448 0
1450 1451 1452 0
-1447 -94 1450 0
-1447 -95 1451 0
-1447 -96 1452 0
-1448 -94 1451 0
-1448 -95 1452 0
-1448 -96 1450 0
-1449 -94 1452 0
-1449 -95 1450 0
-1449 -96 1451 0
1453 1454 1455 0
-1450 -97 1453 0
-1450 -98 1454 0
-1450 -99 1455 0
-1451 -97 1454 0
-1451 -98 1455 0
-1451 -99 1453 0
-1452 -97 1455 0
-1452 -98 1453 0
-1452 -99 1454 0
1456 1457 1458 0
-1453 -106 1456 0
-1453 -107 1457 0
-1453 -108 1458 0
-1454 -106 1457 0
-1454 -107 1458 0
-1454 -108 1456 0
-1455 -106 1458 0
-1455 -107 1456 0
-1455 -108 1457 0
1459 1460 1461 0
-37 -40 1459 0
-37 -41 1460 0
-37 -42 1461 0
-38 -40 1460 0
-38 -41 1461 0
-38 -42 1459 0
-39 -40 1461 0
-39 -41 1459 0
-39 -42 1460 0
1462 1463 1464 0
-1459 -43 1462 0
-1459 -44 1463 0
-1459 -45 1464 0
-1460 -43 1463 0
-1460 -44 1464 0
-1460 -45 1462 0
-1461 -43 1464 0
-1461 -44 1462 0
-1461 -45 1463 0
1465 1466 1467 0
-1462 -100 1465 0
-1462 -101 1466 0
-1462 -102 1467 0
-1463 -100 1466 0
-1463 -101 1467 0
-1463 -102 1465 0
-1464 -100 1467 0
-1464 -101 1465 0
-1464 -102 1466 0
1468 1469 1470 0
-1465 -103 1468 0
-1465 -104 1469 0
-1465 -105 1470 0
-1466 -103 1469 0
-1466 -104 1470 0
-1466 -105 1468 0
-1467 -103 1470 0
-1467 -104 1468 0
-1467 -105 1469 0
1471 1472 1473 0
-1468 -106 1471 0
-1468 -107 1472 0
-1468 -108 1473 0
-1469 -106 1472 0
-1469 -107 1473 0
-1469 -108 1471 0
-1470 -106 1473 0
-1470 -107 1471 0
-1470 -108 1472 0
1474 1475 1476 0
-46 -49 1474 0
-46 -50 1475 0
-46 -51 1476 0
-47 -49 1475 0
-47 -50 1476 0
-47 -51 1474 0
-48 -49 1476 0
-48 -50 1474 0
-48 -51 1475 0
1477 1478 1479 0
-1474 -52 1477 0
-1474 -53 1478 0
-1474 -54 1479 0
-1475 -52 1478 0
-1475 -53 1479 0
-1475 -54 1477 0
-1476 -52 1479 0
-1476 -53 1477 0
-1476 -54 1478 0
1480 1481 1482 0
-1477 -64 1480 0
-1477 -65 1481 0
-1477 -66 1482 0
-1478 -64 1481 0
-1478 -65 1482 0
-1478 -66 1480 0
-1479 -64 1482 0
-1479 -65 1480 0
-1479 -66 1481 0
1483 1484 1485 0
-1480 -67 1483 0
-1480 -68 1484 0
-1480 -69 1485 0
-1481 -67 1484 0
-1481 -68 1485 0
-1481 -69 1483 0
-1482 -67 1485 0
-1482 -68 1483 0
-1482 -69 1484 0
1486 1487 1488 0
-1483 -79 1486 0
-1483 -80 1487 0
-1483 -81 1488 0
-1484 -79 1487 0
-1484 -80 1488 0
-1484 -81 1486 0
-1485 -79 1488 0
-1485 -80 1486 0
-1485 -81 1487 0
1489 1490 1491 0
-46 -49 1489 0
-46 -50 1490 0
-46 -51 1491 0
-47 -49 1490 0
-47 -50 1491 0
-47 -51 1489 0
-48 -49 1491 0
-48 -50 1489 0
-48 -51 1490 0
1492 1493 1494 0
-1489 -55 1492 0
-1489 -56 1493 0
-1489 -57 1494 0
-1490 -55 1493 0
-1490 -56 1494 0
-1490 -57 1492 0
-1491 -55 1494 0
-1491 -56 1492 0
-1491 -57 1493 0
1495 1496 1497 0
-1492 -64 1495 0
-1492 -65 1496 0
-1492 -66 1497 0
-1493 -64 1496 0
-1493 -65 1497 0
-1493 -66 1495 0
-1494 -64 1497 0
-1494 -65 1495 0
-1494 -66 1496 0
1498 1499 1500 0
-1495 -70 1498 0
-1495 -71 1499 0
-1495 -72 1500 0
-1496 -70 1499 0
-1496 -71 1500 0
-1496 -72 1498 0
-1497 -70 1500 0
-1497 -71 1498 0
-1497 -72 1499 0
1501 1502 1503 0
-1498 -82 1501 0
-1498 -83 1502 0
-1498 -84 1503 0
-1499 -82 1502 0
-1499 -83 1503 0
-1499 -84 1501 0
-1500 -82 1503 0
-1500 -83 1501 0
-1500 -84 1502 0
1504 1505 1506 0
-46 -49 1504 0
-46 -50 1505 0
-46 -51 1506 0
-47 -49 1505 0
-47 -50 1506 0
-47 -51 1504 0
-48 -49 1506 0
-48 -50 1504 0
-48 -51 1505 0
1507 1508 1509 0
-1504 -58 1507 0
-1504 -59 1508 0
-1504 -60 1509 0
-1505 -58 1508 0
-1505 -59 1509 0
-1505 -60 1507 0
-1506 -58 1509 0
-1506 -59 1507 0
-1506 -60 1508 0
1510 1511 1512 0
-1507 -64 1510 0
-1507 -65 1511 0
-1507 -66 1512 0
-1508 -64 1511 0
-1508 -65 1512 0
-1508 -66 1510 0
-1509 -64 1512 0
-1509 -65 1510 0
-1509 -66 1511 0
1513 1514 1515 0
-1510 -73 1513 0
-1510 -74 1514 0
-1510 -75 1515 0
-1511 -73 1514 0
-1511 -74 1515 0
-1511 -75 1513 0
-1512 -73 1515 0
-1512 -74 1513 0
-1512 -75 1514 0
1516 1517 1518 0
-1513 -85 1516 0
-1513 -86 1517 0
-1513 -87 1518 0
-1514 -85 1517 0
-1514 -86 1518 0
-1514 -87 1516 0
-1515 -85 1518 0
-1515 -86 1516 0
-1515 -87 1517 0
1519 1520 1521 0
-46 -49 1519 0
-46 -50 1520 0
-46 -51 1521 0
-47 -49 1520 0
-47 -50 1521 0
-47 -51 1519 0
-48 -49 1521 0
-48 -50 1519 0
-48 -51 1520 0
1522 1523 1524 0
-1519 -61 1522 0
-1519 -62 1523 0
-1519 -63 1524 0
-1520 -61 1523 0
-1520 -62 1524 0
-1520 -63 1522 0
-1521 -61 1524 0
-1521 -62 1522 0
-1521 -63 1523 0
1525 1526 1527 0
-1522 -64 1525 0
-1522 -65 1526 0
-1522 -66 1527 0
-1523 -64 1526 0
-1523 -65 1527 0
-1523 -66 1525 0
-1524 -64 1527 0
-1524 -65 1525 0
-1524 -66 1526 0
1528 1529 1530 0
-1525 -76 1528 0
-1525 -77 1529 0
-1525 -78 1530 0
-1526 -76 1529 0
-1526 -77 1530 0
-1526 -78 1528 0
-1527 -76 1530 0
-1527 -77 1528 0
-1527 -78 1529 0
1531 1532 1533 0
-1528 -88 1531 0
-1528 -89 1532 0
-1528 -90 1533 0
-1529 -88 1532 0
-1529 -89 1533 0
-1529 -90 1531 0
-1530 -88 1533 0
-1530 -89 1531 0
-1530 -90 1532 0
1534 1535 1536 0
-46 -52 1534 0
-46 -53 1535 0
-46 -54 1536 0
-47 -52 1535 0
-47 -53 1536 0
-47 -54 1534 0
-48 -52 1536 0
-48 -53 1534 0
-48 -54 1535 0
1537 1538 1539 0
-1534 -55 1537 0
-1534 -56 1538 0
-1534 -57 1539 0
-1535 -55 1538 0
-1535 -56 1539 0
-1535 -57 1537 0
-1536 -55 1539 0
-1536 -56 1537 0
-1536 -57 1538 0
1540 1541 1542 0
-1537 -67 1540 0
-1537 -68 1541 0
-1537 -69 1542 0
-1538 -67 1541 0
-1538 -68 1542 0
-1538 -69 1540 0
-1539 -67 1542 0
-1539 -68 1540 0
-1539 -69 1541 0
1543 1544 1545 0
-1540 -70 1543 0
-1540 -71 1544 0
-1540 -72 1545 0
-1541 -70 1544 0
-1541 -71 1545 0
-1541 -72 1543 0
-1542 -70 1545 0
-1542 -71 1543 0
-1542 -72 1544 0
1546 1547 1548 0
-1543 -91 1546 0
-1543 -92 1547 0
-1543 -93 1548 0
-1544 -91 1547 0
-1544 -92 1548 0
-1544 -93 1546 0
-1545 -91 1548 0
-1545 -92 1546 0
-1545 -93 1547 0
1549 1550 1551 0
-46 -52 1549 0
-46 -53 1550 0
-46 -54 1551 0
-47 -52 1550 0
-47 -53 1551 0
-47 -54 1549 0
-48 -52 1551 0
-48 -53 1549 0
-48 -54 1550 0
1552 1553 1554 0
-1549 -58 1552 0
-1549 -59 1553 0
-1549 -60 1554 0
-1550 -58 1553 0
-1550 -59 1554 0
-1550 -60 1552 0
-1551 -58 1554 0
-1551 -59 1552 0
-1551 -60 1553 0
1555 1556 1557 0
-1552 -67 1555 0
-1552 -68 1556 0
-1552 -69 1557 0
-1553 -67 1556 0
-1553 -68 1557 0
-1553 -69 1555 0
-1554 -67 1557 0
-1554 -68 1555 0
-1554 -69 1556 0
1558 1559 1560 0
-1555 -73 1558 0
-1555 -74 1559 0
-1555 -75 1560 0
-1556 -73 1559 0
-1556 -74 1560 0
-1556 -75 1558 0
-1557 -73 1560 0
-1557 -74 1558 0
-1557 -75 1559 0
1561 1562 1563 0
-1558 -94 1561 0
-1558 -95 1562 0
-1558 -96 1563 0
-1559 -94 1562 0
-1559 -95 1563 0
-1559 -96 1561 0
-1560 -94 1563 0
-1560 -95 1561 0
-1560 -96 1562 0
1564 1565 1566 0
-46 -52 1564 0
-46 -53 1565 0
-46 -54 1566 0
-47 -52 1565 0
-47 -53 1566 0
-47 -54 1564 0
-48 -52 1566 0
-48 -53 1564 0
-48 -54 1565 0
1567 1568 1569 0
-1564 -61 1567 0
-1564 -62 1568 0
-1564 -63 1569 0
-1565 -61 1568 0
-1565 -62 1569 0
-1565 -63 1567 0
-1566 -61 1569 0
-1566 -62 1567 0
-1566 -63 1568 0
1570 1571 1572 0
-1567 -67 1570 0
-1567 -68 1571 0
-1567 -69 1572 0
-1568 -67 1571 0
-1568 -68 1572 0
-1568 -69 1570 0
-1569 -67 1572 0
-1569 -68 1570 0
-1569 -69 1571 0
1573 1574 1575 0
-1570 -76 1573 0
-1570 -77 1574 0
-1570 -78 1575 0
-1571 -76 1574 0
-1571 -77 1575 0
-1571 -78 1573 0
-1572 -76 1575 0
-1572 -77 1573 0
-1572 -78 1574 0
1576 1577 1578 0
-1573 -97 1576 0
-1573 -98 1577 0
-1573 -99 1578 0
-1574 -97 1577 0
-1574 -98 1578 0
-1574 -99 1576 0
-1575 -97 1578 0
-1575 -98 1576 0
-1575 -99 1577 0
1579 1580 1581 0
-46 -55 1579 0
-46 -56 1580 0
-46 -57 1581 0
-47 -55 1580 0
-47 -56 1581 0
-47 -57 1579 0
-48 -55 1581 0
-48 -56 1579 0
-48 -57 1580 0
1582 1583 1584 0
-1579 -58 1582 0
-1579 -59 1583 0
-1579 -60 1584 0
-1580 -58 1583 0
-1580 -59 1584 0
-1580 -60 1582 0
-1581 -58 1584 0
-1581 -59 1582 0
-1581 -60 1583 0
1585 1586 1587 0
-1582 -70 1585 0
-1582 -71 1586 0
-1582 -72 1587 0
-1583 -70 1586 0
-1583 -71 1587 0
-1583 -72 1585 0
-1584 -70 1587 0
-1584 -71 1585 0
-1584 -72 1586 0
1588 1589 1590 0
-1585 -73 1588 0
-1585 -74 1589 0
-1585 -75 1590 0
-1586 -73 1589 0
-1586 -74 1590 0
-1586 -75 1588 0
-1587 -73 1590 0
-1587 -74 1588 0
-1587 -75 1589 0
1591 1592 1593 0
-1588 -100 1591 0
-1588 -101 1592 0
-1588 -102 1593 0
-1589 -100 1592 0
-1589 -101 1593 0
-1589 -102 1591 0
-1590 -100 1593 0
-1590 -101 1591 0
-1590 -102 1592 0
1594 1595 1596 0
-46 -55 1594 0
-46 -56 1595 0
-46 -57 1596 0
-47 -55 1595 0
-47 -56 1596 0
-47 -57 1594 0
-48 -55 1596 0
-48 -56 1594 0
-48 -57 1595 0
1597 1598 1599 0
-1594 -61 1597 0
-1594 -62 1598 0
-1594 -63 1599 0
-1595 -61 1598 0
-1595 -62 1599 0
-1595 -63 1597 0
-1596 -61 1599 0
-1596 -62 1597 0
-1596 -63 1598 0
1600 1601 1602 0
-1597 -70 1600 0
-1597 -71 1601 0
-1597 -72 1602 0
-1598 -70 1601 0
-1598 -71 1602 0
-1598 -72 1600 0
-1599 -70 1602 0
-1599 -71 1600 0
-1599 -72 1601 0
1603 1604 1605 0
-1600 -76 1603 0
-1600 -77 1604 0
-1600 -78 1605 0
-1601 -76 1604 0
-1601 -77 1605 0
-1601 -78 1603 0
-1602 -76 1605 0
-1602 -77 1603 0
-1602 -78 1604 0
1606 1607 1608 0
-1603 -103 1606 0
-1603 -104 1607 0
-1603 -105 1608 0
-1604 -103 1607 0
-1604 -104 1608 0
-1604 -105 1606 0
-1605 -103 1608 0
-1605 -104 1606 0
-1605 -105 1607 0
1609 1610 1611 0
-46 -58 1609 0
-46 -59 1610 0
-46 -60 1611 0
-47 -58 1610 0
-47 -59 1611 0
-47 -60 1609 0
-48 -58 1611 0
-48 -59 1609 0
-48 -60 1610 0
1612 1613 1614 0
-1609 -61 1612 0
-1609 -62 1613 0
-1609 -63 1614 0
-1610 -61 1613 0
-1610 -62 1614 0
-1610 -63 1612 0
-1611 -61 1614 0
-1611 -62 1612 0
-1611 -63 1613 0
1615 1616 1617 0
-1612 -73 1615 0
-1612 -74 1616 0
-1612 -75 1617 0
-1613 -73 1616 0
-1613 -74 1617 0
-1613 -75 1615 0
-1614 -73 1617 0
-1614 -74 1615 0
-1614 -75 1616 0
1618 1619 1620 0
-1615 -76 1618 0
-1615 -77 1619 0
-1615 -78 1620 0
-1616 -76 1619 0
-1616 -77 1620 0
-1616 -78 1618 0
-1617 -76 1620 0
-1617 -77 1618 0
-1617 -78 1619 0
1621 1622 1623 0
-1618 -106 1621 0
-1618 -107 1622 0
-1618 -108 1623 0
-1619 -106 1622 0
-1619 -107 1623 0
-1619 -108 1621 0
-1620 -106 1623 0
-1620 -107 1621 0
-1620 -108 1622 0
1624 1625 1626 0
-49 -52 1624 0
-49 -53 1625 0
-49 -54 1626 0
-50 -52 1625 0
-50 -53 1626 0
-50 -54 1624 0
-51 -52 1626 0
-51 -53 1624 0
-51 -54 1625 0
1627 1628 1629 0
-1624 -55 1627 0
-1624 -56 1628 0
-1624 -57 1629 0
-1625 -55 1628 0
-1625 -56 1629 0
-1625 -57 1627 0
-1626 -55 1629 0
-1626 -56 1627 0
-1626 -57 1628 0
1630 1631 1632 0
-1627 -79 1630 0
-1627 -80 1631 0
-1627 -81 1632 0
-1628 -79 1631 0
-1628 -80 1632 0
-1628 -81 1630 0
-1629 -79 1632 0
-1629 -80 1630 0
-1629 -81 1631 0
1633 1634 1635 0
-1630 -82 1633 0
-1630 -83 1634 0
-1630 -84 1635 0
-1631 -82 1634 0
-1631 -83 1635 0
-1631 -84 1633 0
-1632 -82 1635 0
-1632 -83 1633 0
-1632 -84 1634 0
1636 1637 1638 0
-1633 -91 1636 0
-1633 -92 1637 0
-1633 -93 1638 0
-1634 -91 1637 0
-1634 -92 1638 0
-1634 -93 1636 0
-1635 -91 1638 0
-1635 -92 1636 0
-1635 -93 1637 0
1639 1640 1641 0
-49 -52 1639 0
-49 -53 1640 0
-49 -54 1641 0
-50 -52 1640 0
-50 -53 1641 0
-50 -54 1639 0
-51 -52 1641 0
-51 -53 1639 0
-51 -54 1640 0
1642 1643 1644 0
-1639 -58 1642 0
-1639 -59 1643 0
-1639 -60 1644 0
-1640 -58 1643 0
-1640 -59 1644 0
-1640 -60 1642 0
-1641 -58 1644 0
-1641 -59 1642 0
-1641 -60 1643 0
1645 1646 1647 0
-1642 -79 1645 0
-1642 -80 1646 0
-1642 -81 1647 0
-1643 -79 1646 0
-1643 -80 1647 0
-1643 -81 1645 0
-1644 -79 1647 0
-1644 -80 1645 0
-1644 -81 1646 0
1648 1649 1650 0
-1645 -85 1648 0
-1645 -86 1649 0
-1645 -87 1650 0
-1646 -85 1649 0
-1646 -86 1650 0
-1646 -87 1648 0
-1647 -85 1650 0
-1647 -86 1648 0
-1647 -87 1649 0
1651 1652 1653 0
-1648 -94 1651 0
-1648 -95 1652 0
-1648 -96 1653 0
-1649 -94 1652 0
-1649 -95 1653 0
-1649 -96 1651 0
-1650 -94 1653 0
-1650 -95 1651 0
-1650 -96 1652 0
1654 1655 1656 0
-49 -52 1654 0
-49 -53 1655 0
-49 -54 1656 0
-50 -52 1655 0
-50 -53 1656 0
-50 -54 1654 0
-51 -52 1656 0
-51 -53 1654 0
-51 -54 1655 0
1657 1658 1659 0
-1654 -61 1657 0
-1654 -62 1658 0
-1654 -63 1659 0
-1655 -61 1658 0
-1655 -62 1659 0
-1655 -63 1657 0
-1656 -61 1659 0
-1656 -62 1657 0
-1656 -63 1658 0
1660 1661 1662 0
-1657 -79 1660 0
-1657 -80 1661 0
-1657 -81 1662 0
-1658 -79 1661 0
-1658 -80 1662 0
-1658 -81 1660 0
-1659 -79 1662 0
-1659 -80 1660 0
-1659 -81 1661 0
1663 1664 1665 0
-1660 -88 1663 0
-1660 -89 1664 0
-1660 -90 1665 0
-1661 -88 1664 0
-1661 -89 1665 0
-1661 -90 1663 0
-1662 -88 1665 0
-1662 -89 1663 0
-1662 -90 1664 0
1666 1667 1668 0
-1663 -97 1666 0
-1663 -98 1667 0
-1663 -99 1668 0
-1664 -97 1667 0
-1664 -98 1668 0
-1664 -99 1666 0
-1665 -97 1668 0
-1665 -98 1666 0
-1665 -99 1667 0
1669 1670 1671 0
-49 -55 1669 0
-49 -56 1670 0
-49 -57 1671 0
-50 -55 1670 0
-50 -56 1671 0
-50 -57 1669 0
-51 -55 1671 0
-51 -56 1669 0
-51 -57 1670 0
1672 1673 1674 0
-1669 -58 1672 0
-1669 -59 1673 0
-1669 -60 1674 0
-1670 -58 1673 0
-1670 -59 1674 0
-1670 -60 1672 0
-1671 -58 1674 0
-1671 -59 1672 0
-1671 -60 1673 0
1675 1676 1677 0
-1672 -82 1675 0
-1672 -83 1676 0
-1672 -84 1677 0
-1673 -82 1676 0
-1673 -83 1677 0
-1673 -84 1675 0
-1674 -82 1677 0
-1674 -83 1675 0
-1674 -84 1676 0
1678 1679 1680 0
-1675 -85 1678 0
-1675 -86 1679 0
-1675 -87 1680 0
-1676 -85 1679 0
-1676 -86 1680 0
-1676 -87 1678 0
-1677 -85 1680 0
-1677 -86 1678 0
-1677 -87 1679 0
1681 1682 1683 0
-1678 -100 1681 0
-1678 -101 1682 0
-1678 -102 1683 0
-1679 -100 1682 0
-1679 -101 1683 0
-1679 -102 1681 0
-1680 -100 1683 0
-1680 -101 1681 0
-1680 -102 1682 0
1684 1685 1686 0
-49 -55 1684 0
-49 -56 1685 0
-49 -57 1686 0
-50 -55 1685 0
-50 -56 1686 0
-50 -57 1684 0
-51 -55 1686 0
-51 -56 1684 0
-51 -57 1685 0
1687 1688 1689 0
-1684 -61 1687 0
-1684 -62 1688 0
-1684 -63 1689 0
-1685 -61 1688 0
-1685 -62 1689 0
-1685 -63 1687 0
-1686 -61 1689 0
-1686 -62 1687 0
-1686 -63 1688 0
1690 1691 1692 0
-1687 -82 1690 0
-1687 -83 1691 0
-1687 -84 1692 0
-1688 -82 1691 0
-1688 -83 1692 0
-1688 -84 1690 0
-1689 -82 1692 0
-1689 -83 1690 0
-1689 -84 1691 0
1693 1694 1695 0
-1690 -88 1693 0
-1690 -89 1694 0
-1690 -90 1695 0
-1691 -88 1694 0
-1691 -89 1695 0
-1691 -90 1693 0
-1692 -88 1695 0
-1692 -89 1693 0
-1692 -90 1694 0
1696 1697 1698 0
-1693 -103 1696 0
-1693 -104 1697 0
-1693 -105 1698 0
-1694 -103 1697 0
-1694 -104 1698 0
-1694 -105 1696 0
-1695 -103 1698 0
-1695 -104 1696 0
-1695 -105 1697 0
1699 1700 1701 0
-49 -58 1699 0
-49 -59 1700 0
-49 -60 1701 0
-50 -58 1700 0
-50 -59 1701 0
-50 -60 1699 0
-51 -58 1701 0
-51 -59 1699 0
-51 -60 1700 0
1702 1703 1704 0
-1699 -61 1702 0
-1699 -62 1703 0
-1699 -63 1704 0
-1700 -61 1703 0
-1700 -62 1704 0
-1700 -63 1702 0
-1701 -61 1704 0
-1701 -62 1702 0
-1701 -63 1703 0
1705 1706 1707 0
-1702 -85 1705 0
-1702 -86 1706 0
-1702 -87 1707 0
-1703 -85 1706 0
-1703 -86 1707 0
-1703 -87 1705 0
-1704 -85 1707 0
-1704 -86 1705 0
-1704 -87 1706 0
1708 1709 1710 0
-1705 -88 1708 0
-1705 -89 1709 0
-1705 -90 1710 0
-1706 -88 1709 0
-1706 -89 1710 0
-1706 -90 1708 0
-1707 -88 1710 0
-1707 -89 1708 0
-1707 -90 1709 0
1711 1712 1713 0
-1708 -106 1711 0
-1708 -107 1712 0
-1708 -108 1713 0
-1709 -106 1712 0
-1709 -107 1713 0
-1709 -108 1711 0
-1710 -106 1713 0
-1710 -107 1711 0
-1710 -108 1712 0
1714 1715 1716 0
-52 -55 1714 0
-52 -56 1715 0
-52 -57 1716 0
-53 -55 1715 0
-53 -56 1716 0
-53 -57 1714 0
-54 -55 1716 0
-54 -56 1714 0
-54 -57 1715 0
1717 1718 1719 0
-1714 -58 1717 0
-1714 -59 1718 0
-1714 -60 1719 0
-1715 -58 1718 0
-1715 -59 1719 0
-1715 -60 1717 0
-1716 -58 1719 0
-1716 -59 1717 0
-1716 -60 1718 0
1720 1721 1722 0
-1717 -91 1720 0
-1717 -92 1721 0
-1717 -93 1722 0
-1718 -91 1721 0
-1718 -92 1722 0
-1718 -93 1720 0
-1719 -91 1722 0
-1719 -92 1720 0
-1719 -93 1721 0
1723 1724 1725 0
-1720 -94 1723 0
-1720 -95 1724 0
-1720 -96 1725 0
-1721 -94 1724 0
-1721 -95 1725 0
-1721 -96 1723 0
-1722 -94 1725 0
-1722 -95 1723 0
-1722 -96 1724 0
1726 1727 1728 0
-1723 -100 1726 0
-1723 -101 1727 0
-1723 -102 1728 0
-1724 -100 1727 0
-1724 -101 1728 0
-1724 -102 1726 0
-1725 -100 1728 0
-1725 -101 1726 0
-1725 -102 1727 0
1729 1730 1731 0
-52 -55 1729 0
-52 -56 1730 0
-52 -57 1731 0
-53 -55 1730 0
-53 -56 1731 0
-53 -57 1729 0
-54 -55 1731 0
-54 -56 1729 0
-54 -57 1730 0
1732 1733 1734 0
-1729 -61 1732 0
-1729 -62 1733 0
-1729 -63 1734 0
-1730 -61 1733 0
-1730 -62 1734 0
-1730 -63 1732 0
-1731 -61 1734 0
-1731 -62 1732 0
-1731 -63 1733 0
1735 1736 1737 0
-1732 -91 1735 0
-1732 -92 1736 0
-1732 -93 1737 0
-1733 -91 1736 0
-1733 -92 1737 0
-1733 -93 1735 0
-1734 -91 1737 0
-1734 -92 1735 0
-1734 -93 1736 0
1738 1739 1740 0
-1735 -97 1738 0
-1735 -98 1739 0
-1735 -99 1740 0
-1736 -97 1739 0
-1736 -98 1740 0
-1736 -99 1738 0
-1737 -97 1740 0
-1737 -98 1738 0
-1737 -99 1739 0
1741 1742 1743 0
-1738 -103 1741 0
-1738 -104 1742 0
-1738 -105 1743 0
-1739 -103 1742 0
-1739 -104 1743 0
-1739 -105 1741 0
-1740 -103 1743 0
-1740 -104 1741 0
-1740 -105 1742 0
1744 1745 1746 0
-52 -58 1744 0
-52 -59 1745 0
-52 -60 1746 0
-53 -58 1745 0
-53 -59 1746 0
-53 -60 1744 0
-54 -58 1746 0
-54 -59 1744 0
-54 -60 1745 0
1747 1748 1749 0
-1744 -61 1747 0
-1744 -62 1748 0
-1744 -63 1749 0
-1745 -61 1748 0
-1745 -62 1749 0
-1745 -63 1747 0
-1746 -61 1749 0
-1746 -62 1747 0
-1746 -63 1748 0
1750 1751 1752 0
-1747 -94 1750 0
-1747 -95 1751 0
-1747 -96 1752 0
-1748 -94 1751 0
-1748 -95 1752 0
-1748 -96 1750 0
-1749 -94 1752 0
-1749 -95 1750 0
-1749 -96 1751 0
1753 1754 1755 0
-1750 -97 1753 0
-1750 -98 1754 0
-1750 -99 1755 0
-1751 -97 1754 0
-1751 -98 1755 0
-1751 -99 1753 0
-1752 -97 1755 0
-1752 -98 1753 0
-1752 -99 1754 0
1756 1757 1758 0
-1753 -106 1756 0
-1753 -107 1757 0
-1753 -108 1758 0
-1754 -106 1757 0
-1754 -107 1758 0
-1754 -108 1756 0
-1755 -106 1758 0
-1755 -107 1756 0
-1755 -108 1757 0
1759 1760 1761 0
-55 -58 1759 0
-55 -59 1760 0
-55 -60 1761 0
-56 -58 1760 0
-56 -59 1761 0
-56 -60 1759 0
-57 -58 1761 0
-57 -59 1759 0
-57 -60 1760 0
1762 1763 1764 0
-1759 -61 1762 0
-1759 -62 1763 0
-1759 -63 1764 0
-1760 -61 1763 0
-1760 -62 1764 0
-1760 -63 1762 0
-1761 -61 1764 0
-1761 -62 1762 0
-1761 -63 1763 0
1765 1766 1767 0
-1762 -100 1765 0
-1762 -101 1766 0
-1762 -102 1767 0
-1763 -100 1766 0
-1763 -101 1767 0
-1763 -102 1765 0
-1764 -100 1767 0
-1764 -101 1765 0
-1764 -102 1766 0
1768 1769 1770 0
-1765 -103 1768 0
-1765 -104 1769 0
-1765 -105 1770 0
-1766 -103 1769 0
-1766 -104 1770 0
-1766 -105 1768 0
-1767 -103 1770 0
-1767 -104 1768 0
-1767 -105 1769 0
1771 1772 1773 0
-1768 -106 1771 0
-1768 -107 1772 0
-1768 -108 1773 0
-1769 -106 1772 0
-1769 -107 1773 0
-1769 -108 1771 0
-1770 -106 1773 0
-1770 -107 1771 0
-1770 -108 1772 0
1774 1775 1776 0
-64 -67 1774 0
-64 -68 1775 0
-64 -69 1776 0
-65 -67 1775 0
-65 -68 1776 0
-65 -69 1774 0
-66 -67 1776 0
-66 -68 1774 0
-66 -69 1775 0
1777 1778 1779 0
-1774 -70 1777 0
-1774 -71 1778 0
-1774 -72 1779 0
-1775 -70 1778 0
-1775 -71 1779 0
-1775 -72 1777 0
-1776 -70 1779 0
-1776 -71 1777 0
-1776 -72 1778 0
1780 1781 1782 0
-1777 -79 1780 0
-1777 -80 1781 0
-1777 -81 1782 0
-1778 -79 1781 0
-1778 -80 1782 0
-1778 -81 1780 0
-1779 -79 1782 0
-1779 -80 1780 0
-1779 -81 1781 0
1783 1784 1785 0
-1780 -82 1783 0
-1780 -83 1784 0
-1780 -84 1785 0
-1781 -82 1784 0
-1781 -83 1785 0
-1781 -84 1783 0
-1782 -82 1785 0
-1782 -83 1783 0
-1782 -84 1784 0
1786 1787 1788 0
-1783 -91 1786 0
-1783 -92 1787 0
-1783 -93 1788 0
-1784 -91 1787 0
-1784 -92 1788 0
-1784 -93 1786 0
-1785 -91 1788 0
-1785 -92 1786 0
-1785 -93 1787 0
1789 1790 1791 0
-64 -67 1789 0
-64 -68 1790 0
-64 -69 1791 0
-65 -67 1790 0
-65 -68 1791 0
-65 -69 1789 0
-66 -67 1791 0
-66 -68 1789 0
-66 -69 1790 0
1792 1793 1794 0
-1789 -73 1792 0
-1789 -74 1793 0
-1789 -75 1794 0
-1790 -73 1793 0
-1790 -74 1794 0
-1790 -75 1792 0
-1791 -73 1794 0
-1791 -74 1792 0
-1791 -75 1793 0
1795 1796 1797 0
-1792 -79 1795 0
-1792 -80 1796 0
-1792 -81 1797 0
-1793 -79 1796 0
-1793 -80 1797 0
-1793 -81 1795 0
-1794 -79 1797 0
-1794 -80 1795 0
-1794 -81 1796 0
1798 1799 1800 0
-1795 -85 1798 0
-1795 -86 1799 0
-1795 -87 1800 0
-1796 -85 1799 0
-1796 -86 1800 0
-1796 -87 1798 0
-1797 -85 1800 0
-1797 -86 1798 0
-1797 -87 1799 0
1801 1802 1803 0
-1798 -94 1801 0
-1798 -95 1802 0
-1798 -96 1803 0
-1799 -94 1802 0
-1799 -95 1803 0
-1799 -96 1801 0
-1800 -94 1803 0
-1800 -95 1801 0
-1800 -96 1802 0
1804 1805 1806 0
-64 -67 1804 0
-64 -68 1805 0
-64 -69 1806 0
-65 -67 1805 0
-65 -68 1806 0
-65 -69 1804 0
-66 -67 1806 0
-66 -68 1804 0
-66 -69 1805 0
1807 1808 1809 0
-1804 -76 1807 0
-1804 -77 1808 0
-1804 -78 1809 0
-1805 -76 1808 0
-1805 -77 1809 0
-1805 -78 1807 0
-1806 -76 1809 0
-1806 -77 1807 0
-1806 -78 1808 0
1810 1811 1812 0
-1807 -79 1810 0
-1807 -80 1811 0
-1807 -81 1812 0
-1808 -79 1811 0
-1808 -80 1812 0
-1808 -81 1810 0
-1809 -79 1812 0
-1809 -80 1810 0
-1809 -81 1811 0
1813 1814 1815 0
-1810 -88 1813 0
-1810 -89 1814 0
-1810 -90 1815 0
-1811 -88 1814 0
-1811 -89 1815 0
-1811 -90 1813 0
-1812 -88 1815 0
-1812 -89 1813 0
-1812 -90 1814 0
1816 1817 1818 0
-1813 -97 1816 0
-1813 -98 1817 0
-1813 -99 1818 0
-1814 -97 1817 0
-1814 -98 1818 0
-1814 -99 1816 0
-1815 -97 1818 0
-1815 -98 1816 0
-1815 -99 1817 0
1819 1820 1821 0
-64 -70 1819 0
-64 -71 1820 0
-64 -72 1821 0
-65 -70 1820 0
-65 -71 1821 0
-65 -72 1819 0
-66 -70 1821 0
-66 -71 1819 0
-66 -72 1820 0
1822 1823 1824 0
-1819 -73 1822 0
-1819 -74 1823 0
-1819 -75 1824 0
-1820 -73 1823 0
-1820 -74 1824 0
-1820 -75 1822 0
-1821 -73 1824 0
-1821 -74 1822 0
-1821 -75 1823 0
1825 1826 1827 0
-1822 -82 1825 0
-1822 -83 1826 0
-1822 -84 1827 0
-1823 -82 1826 0
-1823 -83 1827 0
-1823 -84 1825 0
-1824 -82 1827 0
-1824 -83 1825 0
-1824 -84 1826 0
1828 1829 1830 0
-1825 -85 1828 0
-1825 -86 1829 0
-1825 -87 1830 0
-1826 -85 1829 0
-1826 -86 1830 0
-1826 -87 1828 0
-1827 -85 1830 0
-1827 -86 1828 0
-1827 -87 1829 0
1831 1832 1833 0
-1828 -100 1831 0
-1828 -101 1832 0
-1828 -102 1833 0
-1829 -100 1832 0
-1829 -101 1833 0
-1829 -102 1831 0
-1830 -100 1833 0
-1830 -101 1831 0
-1830 -102 1832 0
1834 1835 1836 0
-64 -70 1834 0
-64 -71 1835 0
-64 -72 1836 0
-65 -70 1835 0
-65 -71 1836 0
-65 -72 1834 0
-66 -70 1836 0
-66 -71 1834 0
-66 -72 1835 0
1837 1838 1839 0
-1834 -76 1837 0
-1834 -77 1838 0
-1834 -78 1839 0
-1835 -76 1838 0
-1835 -77 1839 0
-1835 -78 1837 0
-1836 -76 1839 0
-1836 -77 1837 0
-1836 -78 1838 0
1840 1841 1842 0
-1837 -82 1840 0
-1837 -83 1841 0
-1837 -84 1842 0
-1838 -82 1841 0
-1838 -83 1842 0
-1838 -84 1840 0
-1839 -82 1842 0
-1839 -83 1840 0
-1839 -84 1841 0
1843 1844 1845 0
-1840 -88 1843 0
-1840 -89 1844 0
-1840 -90 1845 0
-1841 -88 1844 0
-1841 -89 1845 0
-1841 -90 1843 0
-1842 -88 1845 0
-1842 -89 1843 0
-1842 -90 1844 0
1846 1847 1848 0
-1843 -103 1846 0
-1843 -104 1847 0
-1843 -105 1848 0
-1844 -103 1847 0
-1844 -104 1848 0
-1844 -105 1846 0
-1845 -103 1848 0
-1845 -104 1846 0
-1845 -105 1847 0
1849 1850 1851 0
-64 -73 1849 0
-64 -74 1850 0
-64 -75 1851 0
-65 -73 1850 0
-65 -74 1851 0
-65 -75 1849 0
-66 -73 1851 0
-66 -74 1849 0
-66 -75 1850 0
1852 1853 1854 0
-1849 -76 1852 0
-1849 -77 1853 0
-1849 -78 1854 0
-1850 -76 1853 0
-1850 -77 1854 0
-1850 -78 1852 0
-1851 -76 1854 0
-1851 -77 1852 0
-1851 -78 1853 0
1855 1856 1857 0
-1852 -85 1855 0
-1852 -86 1856 0
-1852 -87 1857 0
-1853 -85 1856 0
-1853 -86 1857 0
-1853 -87 1855 0
-1854 -85 1857 0
-1854 -86 1855 0
-1854 -87 1856 0
1858 1859 1860 0
-1855 -88 1858 0
-1855 -89 1859 0
-1855 -90 1860 0
-1856 -88 1859 0
-1856 -89 1860 0
-1856 -90 1858 0
-1857 -88 1860 0
-1857 -89 1858 0
-1857 -90 1859 0
1861 1862 1863 0
-1858 -106 1861 0
-1858 -107 1862 0
-1858 -108 1863 0
-1859 -106 1862 0
-1859 -107 1863 0
-1859 -108 1861 0
-1860 -106 1863 0
-1860 -107 1861 0
-1860 -108 1862 0
1864 1865 1866 0
-67 -70 1864 0
-67 -71 1865 0
-67 -72 1866 0
-68 -70 1865 0
-68 -71 1866 0
-68 -72 1864 0
-69 -70 1866 0
-69 -71 1864 0
-69 -72 1865 0
1867 1868 1869 0
-1864 -73 1867 0
-1864 -74 1868 0
-1864 -75 1869 0
-1865 -73 1868 0
-1865 -74 1869 0
-1865 -75 1867 0
-1866 -73 1869 0
-1866 -74 1867 0
-1866 -75 1868 0
1870 1871 1872 0
-1867 -91 1870 0
-1867 -92 1871 0
-1867 -93 1872 0
-1868 -91 1871 0
-1868 -92 1872 0
-1868 -93 1870 0
-1869 -91 1872 0
-1869 -92 1870 0
-1869 -93 1871 0
1873 1874 1875 0
-1870 -94 1873 0
-1870 -95 1874 0
-1870 -96 1875 0
-1871 -94 1874 0
-1871 -95 1875 0
-1871 -96 1873 0
-1872 -94 1875 0
-1872 -95 1873 0
-1872 -96 1874 0
1876 1877 1878 0
-1873 -100 1876 0
-1873 -101 1877 0
-1873 -102 1878 0
-1874 -100 1877 0
-1874 -101 1878 0
-1874 -102 1876 0
-1875 -100 1878 0
-1875 -101 1876 0
-1875 -102 1877 0
1879 1880 1881 0
-67 -70 1879 0
-67 -71 1880 0
-67 -72 1881 0
-68 -70 1880 0
-68 -71 1881 0
-68 -72 1879 0
-69 -70 1881 0
-69 -71 1879 0
-69 -72 1880 0
1882 1883 1884 0
-1879 -76 1882 0
-1879 -77 1883 0
-1879 -78 1884 0
-1880 -76 1883 0
-1880 -77 1884 0
-1880 -78 1882 0
-1881 -76 1884 0
-1881 -77 1882 0
-1881 -78 1883 0
1885 1886 1887 0
-1882 -91 1885 0
-1882 -92 1886 0
-1882 -93 1887 0
-1883 -91 1886 0
-1883 -92 1887 0
-1883 -93 1885 0
-1884 -91 1887 0
-1884 -92 1885 0
-1884 -93 1886 0
1888 1889 1890 0
-1885 -97 1888 0
-1885 -98 1889 0
-1885 -99 1890 0
-1886 -97 1889 0
-1886 -98 1890 0
-1886 -99 1888 0
-1887 -97 1890 0
-1887 -98 1888 0
-1887 -99 1889 0
1891 1892 1893 0
-1888 -103 1891 0
-1888 -104 1892 0
-1888 -105 1893 0
-1889 -103 1892 0
-1889 -104 1893 0
-1889 -105 1891 0
-1890 -103 1893 0
-1890 -104 1891 0
-1890 -105 1892 0
1894 1895 1896 0
-67 -73 1894 0
-67 -74 1895 0
-67 -75 1896 0
-68 -73 1895 0
-68 -74 1896 0
-68 -75 1894 0
-69 -73 1896 0
-69 -74 1894 0
-69 -75 1895 0
1897 1898 1899 0
-1894 -76 1897 0
-1894 -77 1898 0
-1894 -78 1899 0
-1895 -76 1898 0
-1895 -77 1899 0
-1895 -78 1897 0
-1896 -76 1899 0
-1896 -77 1897 0
-1896 -78 1898 0
1900 1901 1902 0
-1897 -94 1900 0
-1897 -95 1901 0
-1897 -96 1902 0
-1898 -94 1901 0
-1898 -95 1902 0
-1898 -96 1900 0
-1899 -94 1902 0
-1899 -95 1900 0
-1899 -96 1901 0
1903 1904 1905 0
-1900 -97 1903 0
-1900 -98 1904 0
-1900 -99 1905 0
-1901 -97 1904 0
-1901 -98 1905 0
-1901 -99 1903 0
-1902 -97 1905 0
-1902 -98 1903 0
-1902 -99 1904 0
1906 1907 1908 0
-1903 -106 1906 0
-1903 -107 1907 0
-1903 -108 1908 0
-1904 -106 1907 0
-1904 -107 1908 0
-1904 -108 1906 0
-1905 -106 1908 0
-1905 -107 1906 0
-1905 -108 1907 0
1909 1910 1911 0
-70 -73 1909 0
-70 -74 1910 0
-70 -75 1911 0
-71 -73 1910 0
-71 -74 1911 0
-71 -75 1909 0
-72 -73 1911 0
-72 -74 1909 0
-72 -75 1910 0
1912 1913 1914 0
-1909 -76 1912 0
-1909 -77 1913 0
-1909 -78 1914 0
-1910 -76 1913 0
-1910 -77 1914 0
-1910 -78 1912 0
-1911 -76 1914 0
-1911 -77 1912 0
-1911 -78 1913 0
1915 1916 1917 0
-1912 -100 1915 0
-1912 -101 1916 0
-1912 -102 1917 0
-1913 -100 1916 0
-1913 -101 1917 0
-1913 -102 1915 0
-1914 -100 1917 0
-1914 -101 1915 0
-1914 -102 1916 0
1918 1919 1920 0
-1915 -103 1918 0
-1915 -104 1919 0
-1915 -105 1920 0
-1916 -103 1919 0
-1916 -104 1920 0
-1916 -105 1918 0
-1917 -103 1920 0
-1917 -104 1918 0
-1917 -105 1919 0
1921 1922 1923 0
-1918 -106 1921 0
-1918 -107 1922 0
-1918 -108 1923 0
-1919 -106 1922 0
-1919 -107 1923 0
-1919 -108 1921 0
-1920 -106 1923 0
-1920 -107 1921 0
-1920 -108 1922 0
1924 1925 1926 0
-79 -82 1924 0
-79 -83 1925 0
-79 -84 1926 0
-80 -82 1925 0
-80 -83 1926 0
-80 -84 1924 0
-81 -82 1926 0
-81 -83 1924 0
-81 -84 1925 0
1927 1928 1929 0
-1924 -85 1927 0
-1924 -86 1928 0
-1924 -87 1929 0
-1925 -85 1928 0
-1925 -86 1929 0
-1925 -87 1927 0
-1926 -85 1929 0
-1926 -86 1927 0
-1926 -87 1928 0
1930 1931 1932 0
-1927 -91 1930 0
-1927 -92 1931 0
-1927 -93 1932 0
-1928 -91 1931 0
-1928 -92 1932 0
-1928 -93 1930 0
-1929 -91 1932 0
-1929 -92 1930 0
-1929 -93 1931 0
1933 1934 1935 0
-1930 -94 1933 0
-1930 -95 1934 0
-1930 -96 1935 0
-1931 -94 1934 0
-1931 -95 1935 0
-1931 -96 1933 0
-1932 -94 1935 0
-1932 -95 1933 0
-1932 -96 1934 0
1936 1937 1938 0
-1933 -100 1936 0
-1933 -101 1937 0
-1933 -102 1938 0
-1934 -100 1937 0
-1934 -101 1938 0
-1934 -102 1936 0
-1935 -100 1938 0
-1935 -101 1936 0
-1935 -102 1937 0
1939 1940 1941 0
-79 -82 1939 0
-79 -83 1940 0
-79 -84 1941 0
-80 -82 1940 0
-80 -83 1941 0
-80 -84 1939 0
-81 -82 1941 0
-81 -83 1939 0
-81 -84 1940 0
1942 1943 1944 0
-1939 -88 1942 0
-1939 -89 1943 0
-1939 -90 1944 0
-1940 -88 1943 0
-1940 -89 1944 0
-1940 -90 1942 0
-1941 -88 1944 0
-1941 -89 1942 0
-1941 -90 1943 0
1945 1946 1947 0
-1942 -91 1945 0
-1942 -92 1946 0
-1942 -93 1947 0
-1943 -91 1946 0
-1943 -92 1947 0
-1943 -93 1945 0
-1944 -91 1947 0
-1944 -92 1945 0
-1944 -93 1946 0
1948 1949 1950 0
-1945 -97 1948 0
-1945 -98 1949 0
-1945 -99 1950 0
-1946 -97 1949 0
-1946 -98 1950 0
-1946 -99 1948 0
-1947 -97 1950 0
-1947 -98 1948 0
-1947 -99 1949 0
1951 1952 1953 0
-1948 -103 1951 0
-1948 -104 1952 0
-1948 -105 1953 0
-1949 -103 1952 0
-1949 -104 1953 0
-1949 -105 1951 0
-1950 -103 1953 0
-1950 -104 1951 0
-1950 -105 1952 0
1954 1955 1956 0
-79 -85 1954 0
-79 -86 1955 0
-79 -87 1956 0
-80 -85 1955 0
-80 -86 1956 0
-80 -87 1954 0
-81 -85 1956 0
-81 -86 1954 0
-81 -87 1955 0
1957 1958 1959 0
-1954 -88 1957 0
-1954 -89 1958 0
-1954 -90 1959 0
-1955 -88 1958 0
-1955 -89 1959 0
-1955 -90 1957 0
-1956 -88 1959 0
-1956 -89 1957 0
-1956 -90 1958 0
1960 1961 1962 0
-1957 -94 1960 0
-1957 -95 1961 0
-1957 -96 1962 0
-1958 -94 1961 0
-1958 -95 1962 0
-1958 -96 1960 0
-1959 -94 1962 0
-1959 -95 1960 0
-1959 -96 1961 0
1963 1964 1965 0
-1960 -97 1963 0
-1960 -98 1964 0
-1960 -99 1965 0
-1961 -97 1964 0
-1961 -98 1965 0
-1961 -99 1963 0
-1962 -97 1965 0
-1962 -98 1963 0
-1962 -99 1964 0
1966 1967 1968 0
-1963 -106 1966 0
-1963 -107 1967 0
-1963 -108 1968 0
-1964 -106 1967 0
-1964 -107 1968 0
-1964 -108 1966 0
-1965 -106 1968 0
-1965 -107 1966 0
-1965 -108 1967 0
1969 1970 1971 0
-82 -85 1969 0
-82 -86 1970 0
-82 -87 1971 0
-83 -85 1970 0
-83 -86 1971 0
-83 -87 1969 0
-84 -85 1971 0
-84 -86 1969 0
-84 -87 1970 0
1972 1973 1974 0
-1969 -88 1972 0
-1969 -89 1973 0
-1969 -90 1974 0
-1970 -88 1973 0
-1970 -89 1974 0
-1970 -90 1972 0
-1971 -88 1974 0
-1971 -89 1972 0
-1971 -90 1973 0
1975 1976 1977 0
-1972 -100 1975 0
-1972 -101 1976 0
-1972 -102 1977 0
-1973 -100 1976 0
-1973 -101 1977 0
-1973 -102 1975 0
-1974 -100 1977 0
-1974 -101 1975 0
-1974 -102 1976 0
1978 1979 1980 0
-1975 -103 1978 0
-1975 -104 1979 0
-1975 -105 1980 0
-1976 -103 1979 0
-1976 -104 1980 0
-1976 -105 1978 0
-1977 -103 1980 0
-1977 -104 1978 0
-1977 -105 1979 0
1981 1982 1983 0
-1978 -106 1981 0
-1978 -107 1982 0
-1978 -108 1983 0
-1979 -106 1982 0
-1979 -107 1983 0
-1979 -108 1981 0
-1980 -106 1983 0
-1980 -107 1981 0
-1980 -108 1982 0
1984 1985 1986 0
-91 -94 1984 0
-91 -95 1985 0
-91 -96 1986 0
-92 -94 1985 0
-92 -95 1986 0
-92 -96 1984 0
-93 -94 1986 0
-93 -95 1984 0
-93 -96 1985 0
1987 1988 1989 0
-1984 -97 1987 0
-1984 -98 1988 0
-1984 -99 1989 0
-1985 -97 1988 0
-1985 -98 1989 0
-1985 -99 1987 0
-1986 -97 1989 0
-1986 -98 1987 0
-1986 -99 1988 0
1990 1991 1992 0
-1987 -100 1990 0
-1987 -101 1991 0
-1987 -102 1992 0
-1988 -100 1991 0
-1988 -101 1992 0
-1988 -102 1990 0
-1989 -100 1992 0
-1989 -101 1990 0
-1989 -102 1991 0
1993 1994 1995 0
-1990 -103 1993 0
-1990 -104 1994 0
-1990 -105 1995 0
-1991 -103 1994 0
-1991 -104 1995 0
-1991 -105 1993 0
-1992 -103 1995 0
-1992 -104 1993 0
-1992 -105 1994 0
1996 1997 1998 0
-1993 -106 1996 0
-1993 -107 1997 0
-1993 -108 1998 0
-1994 -106 1997 0
-1994 -107 1998 0
-1994 -108 1996 0
-1995 -106 1998 0
-1995 -107 1996 0
-1995 -108 1997 0
-121 -1936 0
-122 -1938 0
-123 -1937 0
-121 -1951 0
-122 -1953 0
-123 -1952 0
-121 -1966 0
-122 -1968 0
-123 -1967 0
-121 -1981 0
-122 -1983 0
-123 -1982 0
-121 -1996 0
-122 -1998 0
-123 -1997 0
-136 -1876 0
-137 -1878 0
-138 -1877 0
-136 -1891 0
-137 -1893 0
-138 -1892 0
-136 -1906 0
-137 -1908 0
-138 -1907 0
-136 -1921 0
-137 -1923 0
-138 -1922 0
-136 -1996 0
-137 -1998 0
-138 -1997 0
-151 -1831 0
-152 -1833 0
-153 -1832 0
-151 -1846 0
-152 -1848 0
-153 -1847 0
-151 -1861 0
-152 -1863 0
-153 -1862 0
-151 -1921 0
-152 -1923 0
-153 -1922 0
-151 -1981 0
-152 -1983 0
-153 -1982 0
-166 -1801 0
-167 -1803 0
-168 -1802 0
-166 -1816 0
-167 -1818 0
-168 -1817 0
-166 -1861 0
-167 -1863 0
-168 -1862 0
-166 -1906 0
-167 -1908 0
-168 -1907 0
-166 -1966 0
-167 -1968 0
-168 -1967 0
-181 -1786 0
-182 -1788 0
-183 -1787 0
-181 -1816 0
-182 -1818 0
-183 -1817 0
-181 -1846 0
-182 -1848 0
-183 -1847 0
-181 -1891 0
-182 -1893 0
-183 -1892 0
-181 -1951 0
-182 -1953 0
-183 -1952 0
-196 -1786 0
-197 -1788 0
-198 -1787 0
-196 -1801 0
-197 -1803 0
-198 -1802 0
-196 -1831 0
-197 -1833 0
-198 -1832 0
-196 -1876 0
-197 -1878 0
-198 -1877 0
-196 -1936 0
-197 -1938 0
-198 -1937 0
-211 -1726 0
-212 -1728 0
-213 -1727 0
-211 -1741 0
-212 -1743 0
-213 -1742 0
-211 -1756 0
-212 -1758 0
-213 -1757 0
-211 -1771 0
-212 -1773 0
-213 -1772 0
-211 -1996 0
-212 -1998 0
-213 -1997 0
-226 -1681 0
-227 -1683 0
-228 -1682 0
-226 -1696 0
-227 -1698 0
-228 -1697 0
-226 -1711 0
-227 -1713 0
-228 -1712 0
-226 -1771 0
-227 -1773 0
-228 -1772 0
-226 -1981 0
-227 -1983 0
-228 -1982 0
-241 -1651 0
-242 -1653 0
-243 -1652 0
-241 -1666 0
-242 -1668 0
-243 -1667 0
-241 -1711 0
-242 -1713 0
-243 -1712 0
-241 -1756 0
-242 -1758 0
-243 -1757 0
-241 -1966 0
-242 -1968 0
-243 -1967 0
-256 -1636 0
-257 -1638 0
-258 -1637 0
-256 -1666 0
-257 -1668 0
-258 -1667 0
-256 -1696 0
-257 -1698 0
-258 -1697 0
-256 -1741 0
-257 -1743 0
-258 -1742 0
-256 -1951 0
-257 -1953 0
-258 -1952 0
-271 -1636 0
-272 -1638 0
-273 -1637 0
-271 -1651 0
-272 -1653 0
-273 -1652 0
-271 -1681 0
-272 -1683 0
-273 -1682 0
-271 -1726 0
-272 -1728 0
-273 -1727 0
-271 -1936 0
-272 -1938 0
-273 -1937 0
-286 -1591 0
-287 -1593 0
-288 -1592 0
-286 -1606 0
-287 -1608 0
-288 -1607 0
-286 -1621 0
-287 -1623 0
-288 -1622 0
-286 -1771 0
-287 -1773 0
-288 -1772 0
-286 -1921 0
-287 -1923 0
-288 -1922 0
-301 -1561 0
-302 -1563 0
-303 -1562 0
-301 -1576 0
-302 -1578 0
-303 -1577 0
-301 -1621 0
-302 -1623 0
-303 -1622 0
-301 -1756 0
-302 -1758 0
-303 -1757 0
-301 -1906 0
-302 -1908 0
-303 -1907 0
-316 -1546 0
-317 -1548 0
-318 -1547 0
-316 -1576 0
-317 -1578 0
-318 -1577 0
-316 -1606 0
-317 -1608 0
-318 -1607 0
-316 -1741 0
-317 -1743 0
-318 -1742 0
-316 -1891 0
-317 -1893 0
-318 -1892 0
-331 -1546 0
-332 -1548 0
-333 -1547 0
-331 -1561 0
-332 -1563 0
-333 -1562 0
-331 -1591 0
-332 -1593 0
-333 -1592 0
-331 -1726 0
-332 -1728 0
-333 -1727 0
-331 -1876 0
-332 -1878 0
-333 -1877 0
-346 -1516 0
-347 -1518 0
-348 -1517 0
-346 -1531 0
-347 -1533 0
-348 -1532 0
-346 -1621 0
-347 -1623 0
-348 -1622 0
-346 -1711 0
-347 -1713 0
-348 -1712 0
-346 -1861 0
-347 -1863 0
-348 -1862 0
-361 -1501 0
-362 -1503 0
-363 -1502 0
-361 -1531 0
-362 -1533 0
-363 -1532 0
-361 -1606 0
-362 -1608 0
-363 -1607 0
-361 -1696 0
-362 -1698 0
-363 -1697 0
-361 -1846 0
-362 -1848 0
-363 -1847 0
-376 -1501 0
-377 -1503 0
-378 -1502 0
-376 -1516 0
-377 -1518 0
-378 -1517 0
-376 -1591 0
-377 -1593 0
-378 -1592 0
-376 -1681 0
-377 -1683 0
-378 -1682 0
-376 -1831 0
-377 -1833 0
-378 -1832 0
-391 -1486 0
-392 -1488 0
-393 -1487 0
-391 -1531 0
-392 -1533 0
-393 -1532 0
-391 -1576 0
-392 -1578 0
-393 -1577 0
-391 -1666 0
-392 -1668 0
-393 -1667 0
-391 -1816 0
-392 -1818 0
-393 -1817 0
-406 -1486 0
-407 -1488 0
-408 -1487 0
-406 -1516 0
-407 -1518 0
-408 -1517 0
-406 -1561 0
-407 -1563 0
-408 -1562 0
-406 -1651 0
-407 -1653 0
-408 -1652 0
-406 -1801 0
-407 -1803 0
-408 -1802 0
-421 -1486 0
-422 -1488 0
-423 -1487 0
-421 -1501 0
-422 -1503 0
-423 -1502 0
-421 -1546 0
-422 -1548 0
-423 -1547 0
-421 -1636 0
-422 -1638 0
-423 -1637 0
-421 -1786 0
-422 -1788 0
-423 -1787 0
-436 -1426 0
-437 -1428 0
-438 -1427 0
-436 -1441 0
-437 -1443 0
-438 -1442 0
-436 -1456 0
-437 -1458 0
-438 -1457 0
-436 -1471 0
-437 -1473 0
-438 -1472 0
-436 -1996 0
-437 -1998 0
-438 -1997 0
-451 -1381 0
-452 -1383 0
-453 -1382 0
-451 -1396 0
-452 -1398 0
-453 -1397 0
-451 -1411 0
-452 -1413 0
-453 -1412 0
-451 -1471 0
-452 -1473 0
-453 -1472 0
-451 -1981 0
-452 -1983 0
-453 -1982 0
-466 -1351 0
-467 -1353 0
-468 -1352 0
-466 -1366 0
-467 -1368 0
-468 -1367 0
-466 -1411 0
-467 -1413 0
-468 -1412 0
-466 -1456 0
-467 -1458 0
-468 -1457 0
-466 -1966 0
-467 -1968 0
-468 -1967 0
-481 -1336 0
-482 -1338 0
-483 -1337 0
-481 -1366 0
-482 -1368 0
-483 -1367 0
-481 -1396 0
-482 -1398 0
-483 -1397 0
-481 -1441 0
-482 -1443 0
-483 -1442 0
-481 -1951 0
-482 -1953 0
-483 -1952 0
-496 -1336 0
-497 -1338 0
-498 -1337 0
-496 -1351 0
-497 -1353 0
-498 -1352 0
-496 -1381 0
-497 -1383 0
-498 -1382 0
-496 -1426 0
-497 -1428 0
-498 -1427 0
-496 -1936 0
-497 -1938 0
-498 -1937 0
-511 -1291 0
-512 -1293 0
-513 -1292 0
-511 -1306 0
-512 -1308 0
-513 -1307 0
-511 -1321 0
-512 -1323 0
-513 -1322 0
-511 -1471 0
-512 -1473 0
-513 -1472 0
-511 -1921 0
-512 -1923 0
-513 -1922 0
-526 -1261 0
-527 -1263 0
-528 -1262 0
-526 -1276 0
-527 -1278 0
-528 -1277 0
-526 -1321 0
-527 -1323 0
-528 -1322 0
-526 -1456 0
-527 -1458 0
-528 -1457 0
-526 -1906 0
-527 -1908 0
-528 -1907 0
-541 -1246 0
-542 -1248 0
-543 -1247 0
-541 -1276 0
-542 -1278 0
-543 -1277 0
-541 -1306 0
-542 -1308 0
-543 -1307 0
-541 -1441 0
-542 -1443 0
-543 -1442 0
-541 -1891 0
-542 -1893 0
-543 -1892 0
-556 -1246 0
-557 -1248 0
-558 -1247 0
-556 -1261 0
-557 -1263 0
-558 -1262 0
-556 -1291 0
-557 -1293 0
-558 -1292 0
-556 -1426 0
-557 -1428 0
-558 -1427 0
-556 -1876 0
-557 -1878 0
-558 -1877 0
-571 -1216 0
-572 -1218 0
-573 -1217 0
-571 -1231 0
-572 -1233 0
-573 -1232 0
-571 -1321 0
-572 -1323 0
-573 -1322 0
-571 -1411 0
-572 -1413 0
-573 -1412 0
-571 -1861 0
-572 -1863 0
-573 -1862 0
-586 -1201 0
-587 -1203 0
-588 -1202 0
-586 -1231 0
-587 -1233 0
-588 -1232 0
-586 -1306 0
-587 -1308 0
-588 -1307 0
-586 -1396 0
-587 -1398 0
-588 -1397 0
-586 -1846 0
-587 -1848 0
-588 -1847 0
-601 -1201 0
-602 -1203 0
-603 -1202 0
-601 -1216 0
-602 -1218 0
-603 -1217 0
-601 -1291 0
-602 -1293 0
-603 -1292 0
-601 -1381 0
-602 -1383 0
-603 -1382 0
-601 -1831 0
-602 -1833 0
-603 -1832 0
-616 -1186 0
-617 -1188 0
-618 -1187 0
-616 -1231 0
-617 -1233 0
-618 -1232 0
-616 -1276 0
-617 -1278 0
-618 -1277 0
-616 -1366 0
-617 -1368 0
-618 -1367 0
-616 -1816 0
-617 -1818 0
-618 -1817 0
-631 -1186 0
-632 -1188 0
-633 -1187 0
-631 -1216 0
-632 -1218 0
-633 -1217 0
-631 -1261 0
-632 -1263 0
-633 -1262 0
-631 -1351 0
-632 -1353 0
-633 -1352 0
-631 -1801 0
-632 -1803 0
-633 -1802 0
-646 -1186 0
-647 -1188 0
-648 -1187 0
-646 -1201 0
-647 -1203 0
-648 -1202 0
-646 -1246 0
-647 -1248 0
-648 -1247 0
-646 -1336 0
-647 -1338 0
-648 -1337 0
-646 -1786 0
-647 -1788 0
-648 -1787 0
-661 -1141 0
-662 -1143 0
-663 -1142 0
-661 -1156 0
-662 -1158 0
-663 -1157 0
-661 -1171 0
-662 -1173 0
-663 -1172 0
-661 -1471 0
-662 -1473 0
-663 -1472 0
-661 -1771 0
-662 -1773 0
-663 -1772 0
-676 -1111 0
-677 -1113 0
-678 -1112 0
-676 -1126 0
-677 -1128 0
-678 -1127 0
-676 -1171 0
-677 -1173 0
-678 -1172 0
-676 -1456 0
-677 -1458 0
-678 -1457 0
-676 -1756 0
-677 -1758 0
-678 -1757 0
-691 -1096 0
-692 -1098 0
-693 -1097 0
-691 -1126 0
-692 -1128 0
-693 -1127 0
-691 -1156 0
-692 -1158 0
-693 -1157 0
-691 -1441 0
-692 -1443 0
-693 -1442 0
-691 -1741 0
-692 -1743 0
-693 -1742 0
-706 -1096 0
-707 -1098 0
-708 -1097 0
-706 -1111 0
-707 -1113 0
-708 -1112 0
-706 -1141 0
-707 -1143 0
-708 -1142 0
-706 -1426 0
-707 -1428 0
-708 -1427 0
-706 -1726 0
-707 -1728 0
-708 -1727 0
-721 -1066 0
-722 -1068 0
-723 -1067 0
-721 -1081 0
-722 -1083 0
-723 -1082 0
-721 -1171 0
-722 -1173 0
-723 -1172 0
-721 -1411 0
-722 -1413 0
-723 -1412 0
-721 -1711 0
-722 -1713 0
-723 -1712 0
-736 -1051 0
-737 -1053 0
-738 -1052 0
-736 -1081 0
-737 -1083 0
-738 -1082 0
-736 -1156 0
-737 -1158 0
-738 -1157 0
-736 -1396 0
-737 -1398 0
-738 -1397 0
-736 -1696 0
-737 -1698 0
-738 -1697 0
-751 -1051 0
-752 -1053 0
-753 -1052 0
-751 -1066 0
-752 -1068 0
-753 -1067 0
-751 -1141 0
-752 -1143 0
-753 -1142 0
-751 -1381 0
-752 -1383 0
-753 -1382 0
-751 -1681 0
-752 -1683 0
-753 -1682 0
-766 -1036 0
-767 -1038 0
-768 -1037 0
-766 -1081 0
-767 -1083 0
-768 -1082 0
-766 -1126 0
-767 -1128 0
-768 -1127 0
-766 -1366 0
-767 -1368 0
-768 -1367 0
-766 -1666 0
-767 -1668 0
-768 -1667 0
-781 -1036 0
-782 -1038 0
-783 -1037 0
-781 -1066 0
-782 -1068 0
-783 -1067 0
-781 -1111 0
-782 -1113 0
-783 -1112 0
-781 -1351 0
-782 -1353 0
-783 -1352 0
-781 -1651 0
-782 -1653 0
-783 -1652 0
-796 -1036 0
-797 -1038 0
-798 -1037 0
-796 -1051 0
-797 -1053 0
-798 -1052 0
-796 -1096 0
-797 -1098 0
-798 -1097 0
-796 -1336 0
-797 -1338 0
-798 -1337 0
-796 -1636 0
-797 -1638 0
-798 -1637 0
-811 -1006 0
-812 -1008 0
-813 -1007 0
-811 -1021 0
-812 -1023 0
-813 -1022 0
-811 -1171 0
-812 -1173 0
-813 -1172 0
-811 -1321 0
-812 -1323 0
-813 -1322 0
-811 -1621 0
-812 -1623 0
-813 -1622 0
-826 -991 0
-827 -993 0
-828 -992 0
-826 -1021 0
-827 -1023 0
-828 -1022 0
-826 -1156 0
-827 -1158 0
-828 -1157 0
-826 -1306 0
-827 -1308 0
-828 -1307 0
-826 -1606 0
-827 -1608 0
-828 -1607 0
-841 -991 0
-842 -993 0
-843 -992 0
-841 -1006 0
-842 -1008 0
-843 -1007 0
-841 -1141 0
-842 -1143 0
-843 -1142 0
-841 -1291 0
-842 -1293 0
-843 -1292 0
-841 -1591 0
-842 -1593 0
-843 -1592 0
-856 -976 0
-857 -978 0
-858 -977 0
-856 -1021 0
-857 -1023 0
-858 -1022 0
-856 -1126 0
-857 -1128 0
-858 -1127 0
-856 -1276 0
-857 -1278 0
-858 -1277 0
-856 -1576 0
-857 -1578 0
-858 -1577 0
-871 -976 0
-872 -978 0
-873 -977 0
-871 -1006 0
-872 -1008 0
-873 -1007 0
-871 -1111 0
-872 -1113 0
-873 -1112 0
-871 -1261 0
-872 -1263 0
-873 -1262 0
-871 -1561 0
-872 -1563 0
-873 -1562 0
-886 -976 0
-887 -978 0
-888 -977 0
-886 -991 0
-887 -993 0
-888 -992 0
-886 -1096 0
-887 -1098 0
-888 -1097 0
-886 -1246 0
-887 -1248 0
-888 -1247 0
-886 -1546 0
-887 -1548 0
-888 -1547 0
-901 -961 0
-902 -963 0
-903 -962 0
-901 -1021 0
-902 -1023 0
-903 -1022 0
-901 -1081 0
-902 -1083 0
-903 -1082 0
-901 -1231 0
-902 -1233 0
-903 -1232 0
-901 -1531 0
-902 -1533 0
-903 -1532 0
-916 -961 0
-917 -963 0
-918 -962 0
-916 -1006 0
-917 -1008 0
-918 -1007 0
-916 -1066 0
-917 -1068 0
-918 -1067 0
-916 -1216 0
-917 -1218 0
-918 -1217 0
-916 -1516 0
-917 -1518 0
-918 -1517 0
-931 -961 0
-932 -963 0
-933 -962 0
-931 -991 0
-932 -993 0
-933 -992 0
-931 -1051 0
-932 -1053 0
-933 -1052 0
-931 -1201 0
-932 -1203 0
-933 -1202 0
-931 -1501 0
-932 -1503 0
-933 -1502 0
-946 -961 0
-947 -963 0
-948 -962 0
-946 -976 0
-947 -978 0
-948 -977 0
-946 -1036 0
-947 -1038 0
-948 -1037 0
-946 -1186 0
-947 -1188 0
-948 -1187 0
-946 -1486 0
-947 -1488 0
-948 -1487 0
-961 -1996 0
-962 -1998 0
-963 -1997 0
-976 -1981 0
-977 -1983 0
-978 -1982 0
-991 -1966 0
-992 -1968 0
-993 -1967 0
-1006 -1951 0
-1007 -1953 0
-1008 -1952 0
-1021 -1936 0
-1022 -1938 0
-1023 -1937 0
-1036 -1921 0
-1037 -1923 0
-1038 -1922 0
-1051 -1906 0
-1052 -1908 0
-1053 -1907 0
-1066 -1891 0
-1067 -1893 0
-1068 -1892 0
-1081 -1876 0
-1082 -1878 0
-1083 -1877 0
-1096 -1861 0
-1097 -1863 0
-1098 -1862 0
-1111 -1846 0
-1112 -1848 0
-1113 -1847 0
-1126 -1831 0
-1127 -1833 0
-1128 -1832 0
-1141 -1816 0
-1142 -1818 0
-1143 -1817 0
-1156 -1801 0
-1157 -1803 0
-1158 -1802 0
-1171 -1786 0
-1172 -1788 0
-1173 -1787 0
-1186 -1771 0
-1187 -1773 0
-1188 -1772 0
-1201 -1756 0
-1202 -1758 0
-1203 -1757 0
-1216 -1741 0
-1217 -1743 0
-1218 -1742 0
-1231 -1726 0
-1232 -1728 0
-1233 -1727 0
-1246 -1711 0
-1247 -1713 0
-1248 -1712 0
-1261 -1696 0
-1262 -1698 0
-1263 -1697 0
-1276 -1681 0
-1277 -1683 0
-1278 -1682 0
-1291 -1666 0
-1292 -1668 0
-1293 -1667 0
-1306 -1651 0
-1307 -1653 0
-1308 -1652 0
-1321 -1636 0
-1322 -1638 0
-1323 -1637 0
-1336 -1621 0
-1337 -1623 0
-1338 -1622 0
-1351 -1606 0
-1352 -1608 0
-1353 -1607 0
-1366 -1591 0
-1367 -1593 0
-1368 -1592 0
-1381 -1576 0
-1382 -1578 0
-1383 -1577 0
-1396 -1561 0
-1397 -1563 0
-1398 -1562 0
-1411 -1546 0
-1412 -1548 0
-1413 -1547 0
-1426 -1531 0
-1427 -1533 0
-1428 -1532 0
-1441 -1516 0
-1442 -1518 0
-1443 -1517 0
-1456 -1501 0
-1457 -1503 0
-1458 -1502 0
-1471 -1486 0
-1472 -1488 0
-1473 -1487 0
1 0
4 0
7 0
10 0
13 0
16 0
19 0
22 0
